6
# step=     0 energy=-149.90969632
O    -3.01915215   0.11651240   0.00000000
H    -2.12897598  -0.24291286   0.00000000
H    -2.97700817   1.07558695   0.00000000
O    -0.69769186  -0.67336151   0.00000000
H     0.22163322  -0.94984208   0.00000000
H    -0.91529978  -1.60362351   0.09412508
6
# step=     1 energy=-149.90956253
O    -3.01929408   0.11750463   0.00026762
H    -2.12752518  -0.24396104   0.00365200
H    -2.98098896   1.07497626   0.00963794
O    -0.70006477  -0.67217580   0.00286608
H     0.21861305  -0.94126555   0.00563267
H    -0.91681680  -1.60318891   0.08972957
6
# step=     2 energy=-149.91204782
O    -3.01861289   0.11702078  -0.00129415
H    -2.12308048  -0.24276399   0.00544949
H    -2.98092643   1.07680060   0.01768150
O    -0.70100129  -0.67230326   0.00396549
H     0.22477038  -0.92934311   0.00897913
H    -0.92339615  -1.60835179   0.08393974
6
# step=     3 energy=-149.91611373
O    -3.01840925   0.11625113  -0.00287320
H    -2.11746129  -0.23793719   0.00720555
H    -2.97815029   1.08186474   0.02586622
O    -0.70178807  -0.67262446   0.00508291
H     0.23788080  -0.91319500   0.01189288
H    -0.93557158  -1.61693724   0.07847134
6
# step=     4 energy=-149.92018451
O    -3.01864857   0.11525989  -0.00446269
H    -2.11114736  -0.22944096   0.00894350
H    -2.97285268   1.08916170   0.03415953
O    -0.70237146  -0.67323048   0.00621660
H     0.25587594  -0.89315790   0.01446616
H    -0.95201496  -1.62721149   0.07315962
6
# step=     5 energy=-149.92307684
O    -3.01928698   0.11414185  -0.00605847
H    -2.10452982  -0.21739630   0.01068256
H    -2.96536440   1.09732015   0.04251855
O    -0.70268359  -0.67421992   0.00736873
H     0.27608879  -0.86965759   0.01679070
H    -0.97112503  -1.63719510   0.06783536
6
# step=     6 energy=-149.92444811
O    -3.02027576   0.11300541  -0.00765539
H    -2.09789308  -0.20208743   0.01243075
H    -2.95614038   1.10489012   0.05087271
O    -0.70265948  -0.67567063   0.00854126
H     0.29577739  -0.84326845   0.01894189
H    -0.99123960  -1.64506864   0.06237203
6
# step=     7 energy=-149.92466297
O    -3.02156265   0.11195665  -0.00924661
H    -2.09142003  -0.18395498   0.01418125
H    -2.94574331   1.11059095   0.05912913
O    -0.70225141  -0.67762194   0.00973434
H     0.31252545  -0.81472426   0.02097647
H    -1.01079672  -1.64944493   0.05670082
6
# step=     8 energy=-149.92436787
O    -3.02309225   0.11108704  -0.01082414
H    -2.08521462  -0.16357850   0.01591018
H    -2.93481941   1.11348814   0.06718732
O    -0.70143696  -0.68006773   0.01094610
H     0.32448276  -0.78488907   0.02293518
H    -1.02844084  -1.64950751   0.05080731
6
# step=     9 energy=-149.92408365
O    -3.02480635   0.11046545  -0.01237960
H    -2.07933428  -0.14165253   0.01757507
H    -2.92406794   1.11309668   0.07495635
O    -0.70022169  -0.68295659   0.01217296
H     0.33047667  -0.75470762   0.02484638
H    -1.04308522  -1.64505628   0.04471989
6
# step=    10 energy=-149.92397142
O    -3.02664468   0.11013369  -0.01390517
H    -2.07382318  -0.11895876   0.01911446
H    -2.91420614   1.10942351   0.08237149
O    -0.69863849  -0.68619573   0.01341022
H     0.33004856  -0.72514779   0.02672941
H    -1.05394803  -1.63650232   0.03849523
6
# step=    11 energy=-149.92380248
O    -3.02854629   0.11010514  -0.01539447
H    -2.06873884  -0.09633395   0.02044889
H    -2.90593206   1.10296082   0.08940869
O    -0.69674572  -0.68965716   0.01465283
H     0.32345837  -0.69713829   0.02859739
H    -1.06057481  -1.62483411   0.03220263
6
# step=    12 energy=-149.92311338
O    -3.03045191   0.11036603  -0.01684349
H    -2.06416658  -0.07463112   0.02148379
H    -2.89988751   1.09463239   0.09609534
O    -0.69462508  -0.69318631   0.01589628
H     0.31167372  -0.67150140   0.03045985
H    -1.06284728  -1.61155329   0.02590786
6
# step=    13 energy=-149.92150373
O    -3.03230692   0.11087985  -0.01825128
H    -2.06022088  -0.05467356   0.02211483
H    -2.89662575   1.08568770   0.10251439
O    -0.69237942  -0.69661409   0.01713752
H     0.29633363  -0.64888435   0.03232529
H    -1.06096502  -1.59855982   0.01965705
6
# step=    14 energy=-149.91898534
O    -3.03406442   0.11159515  -0.01962019
H    -2.05703611  -0.03720281   0.02223520
H    -2.89658958   1.07753899   0.10879850
O    -0.69012987  -0.69977349   0.01837588
H     0.27965325  -0.62970108   0.03420367
H    -1.05537843  -1.58795954   0.01346291
6
# step=    15 energy=-149.91620611
O    -3.03568773   0.11245663  -0.02095560
H    -2.05475093  -0.02282518   0.02174436
H    -2.90010423   1.07154743   0.11511225
O    -0.68801024  -0.70252021   0.01961371
H     0.26421958  -0.61410392   0.03610789
H    -1.04665644  -1.58177905   0.00729709
6
# step=    16 energy=-149.91432569
O    -3.03715207   0.11341823  -0.02226490
H    -2.05349053  -0.01196663   0.02055680
H    -2.90738582   1.06878758   0.12162259
O    -0.68615561  -0.70475411   0.02085651
H     0.25263864  -0.60201025   0.03805271
H    -1.03529905  -1.58161450   0.00109359
6
# step=    17 energy=-149.91445975
O    -3.03844408   0.11445428  -0.02355476
H    -2.05335006  -0.00485448   0.01861088
H    -2.91854934   1.06984249   0.12845697
O    -0.68468464  -0.70643337   0.02211126
H     0.24706143  -0.59320363   0.04004778
H    -1.02156204  -1.58829680  -0.00522829
6
# step=    18 energy=-149.91695455
O    -3.03955903   0.11556362  -0.02482533
H    -2.05437411  -0.00152007   0.01588402
H    -2.93356641   1.07466340   0.13564677
O    -0.68367786  -0.70757597   0.02338118
H     0.24868050  -0.58747809   0.04208267
H    -1.00540916  -1.60164562  -0.01171563
6
# step=    19 energy=-149.92105046
O    -3.04050432   0.11676973  -0.02606986
H    -2.05652880  -0.00176804   0.01240458
H    -2.95221975   1.08253211   0.14310671
O    -0.68315039  -0.70825786   0.02466458
H     0.25733945  -0.58470473   0.04412025
H    -0.98657494  -1.62042725  -0.01835559
6
# step=    20 energy=-149.92532021
O    -3.04130538   0.11811715  -0.02727947
H    -2.05969106  -0.00517926   0.00824606
H    -2.97412486   1.09220580   0.15066367
O    -0.68303997  -0.70860118   0.02595829
H     0.27156789  -0.58481826   0.04610478
H    -0.96468581  -1.64264167  -0.02508429
6
# step=    21 energy=-149.92851099
O    -3.04200584   0.11966010  -0.02844528
H    -2.06365470  -0.01116496   0.00351907
H    -2.99874320   1.10216796   0.15808978
O    -0.68322155  -0.70875285   0.02725813
H     0.28902240  -0.58775680   0.04797319
H    -0.93944580  -1.66594015  -0.03179620
6
# step=    22 energy=-149.93011319
O    -3.04266450   0.12144894  -0.02955996
H    -2.06814878  -0.01902700  -0.00163683
H    -3.02539538   1.11089094   0.16514023
O    -0.68353437  -0.70886533   0.02855865
H     0.30705585  -0.59337473   0.04966828
H    -0.91078931  -1.68800496  -0.03835942
6
# step=    23 energy=-149.93037898
O    -3.04335031   0.12351869  -0.03061922
H    -2.07286981  -0.02801246  -0.00706256
H    -3.05329417   1.11705939   0.17159293
O    -0.68380890  -0.70908230   0.02985337
H     0.32320175  -0.60137717   0.05115057
H    -0.87894995  -1.70683001  -0.04463587
6
# step=    24 energy=-149.92996864
O    -3.04413562   0.12588115  -0.03162330
H    -2.07752441  -0.03735883  -0.01258918
H    -3.08159485   1.11973071   0.17728307
O    -0.68388759  -0.70952843   0.03113537
H     0.33548755  -0.61129708   0.05240555
H    -0.84445639  -1.72089629  -0.05050125
6
# step=    25 energy=-149.92952261
O    -3.04508909   0.12852034  -0.03257790
H    -2.08187409  -0.04632801  -0.01804607
H    -3.10945360   1.11843174   0.18212931
O    -0.68363842  -0.71030217   0.03239809
H     0.34259420  -0.62250514   0.05344697
H    -0.80808585  -1.72926713  -0.05586202
6
# step=    26 energy=-149.92935157
O    -3.04626909   0.13139086  -0.03349479
H    -2.08577063  -0.05423063  -0.02326713
H    -3.13608698   1.11320232   0.18615129
O    -0.68296347  -0.71147091   0.03363600
H     0.34391993  -0.63423434   0.05431751
H    -0.77080089  -1.73163459  -0.06066963
6
# step=    27 energy=-149.92931903
O    -3.04771886   0.13441876  -0.03439208
H    -2.08917147  -0.06044483  -0.02809527
H    -3.16082666   1.10459537   0.18947924
O    -0.68180486  -0.71306771   0.03484530
H     0.33959910  -0.64560757   0.05508872
H    -0.73368098  -1.72833785  -0.06493276
6
# step=    28 energy=-149.92893510
O    -3.04946418   0.13750524  -0.03529396
H    -2.09213008  -0.06443368  -0.03238602
H    -3.18316548   1.09363264   0.19235432
O    -0.68014911  -0.71508992   0.03602458
H     0.33049834  -0.65566599   0.05586071
H    -0.69784965  -1.72035611  -0.06872766
6
# step=    29 energy=-149.92765211
O    -3.05151374   0.14053407  -0.03622975
H    -2.09476306  -0.06576239  -0.03601096
H    -3.20278714   1.08170571   0.19511587
O    -0.67802961  -0.71750035   0.03717536
H     0.31817909  -0.66340221   0.05676095
H    -0.66439480  -1.70925855  -0.07220437
6
# step=    30 energy=-149.92528920
O    -3.05386268   0.14338321  -0.03723194
H    -2.09720215  -0.06411339  -0.03886097
H    -3.21956887   1.07040981   0.19817065
O    -0.67552424  -0.72023270   0.03830226
H     0.30478609  -0.66780413   0.05794042
H    -0.63428385  -1.69707843  -0.07558392
6
# step=    31 energy=-149.92238436
O    -3.05649855   0.14594052  -0.03833286
H    -2.09954375  -0.05929538  -0.04084925
H    -3.23354960   1.06130956   0.20194059
O    -0.67274466  -0.72320284   0.03941258
H     0.29280545  -0.66791660   0.05956480
H    -0.60828037  -1.68607843  -0.07914042
6
# step=    32 energy=-149.92016057
O    -3.05940886   0.14812127  -0.03956032
H    -2.10180904  -0.05124322  -0.04191351
H    -3.24486527   1.05566528   0.20679272
O    -0.66981381  -0.72632589   0.04051516
H     0.28465537  -0.66292513   0.06179782
H    -0.58687781  -1.67840105  -0.08316305
6
# step=    33 energy=-149.91991958
O    -3.06258676   0.14988281  -0.04093255
H    -2.10392560  -0.04001189  -0.04201715
H    -3.25366648   1.05418568   0.21296345
O    -0.66683478  -0.72953467   0.04161805
H     0.28215198  -0.65226290   0.06477569
H    -0.57027469  -1.67565906  -0.08789858
6
# step=    34 energy=-149.92215158
O    -3.06603014   0.15123114  -0.04245276
H    -2.10573707  -0.02577945  -0.04115164
H    -3.26005024   1.05687937   0.22049358
O    -0.66386196  -0.73279085   0.04272530
H     0.28599979  -0.63574467   0.06857317
H    -0.55839836  -1.67857784  -0.09348433
6
# step=    35 energy=-149.92608878
O    -3.06973773   0.15222018  -0.04410690
H    -2.10704740  -0.00884664  -0.03934257
H    -3.26405238   1.06305292   0.22920436
O    -0.66088420  -0.73608781   0.04383541
H     0.29552476  -0.61368575   0.07317456
H    -0.55093368  -1.68681638  -0.09990108
6
# step=    36 energy=-149.93017673
O    -3.07370698   0.15294246  -0.04586735
H    -2.10769245   0.01039432  -0.03665278
H    -3.26569605   1.07148211   0.23873716
O    -0.65782780  -0.73944626   0.04494321
H     0.30884395  -0.58691127   0.07846892
H    -0.54735849  -1.69908233  -0.10697575
6
# step=    37 energy=-149.93304090
O    -3.07792829   0.15351174  -0.04769823
H    -2.10761389   0.03148819  -0.03318226
H    -3.26505344   1.08068876   0.24862862
O    -0.65458289  -0.74289961   0.04604210
H     0.32339231  -0.55665959   0.08426651
H    -0.54700566  -1.71348936  -0.11442329
6
# step=    38 energy=-149.93413420
O    -3.08237789   0.15404493  -0.04956040
H    -2.10691284   0.05392823  -0.02906813
H    -3.26229977   1.08921553   0.25839153
O    -0.65103777  -0.74647715   0.04712586
H     0.33652541  -0.52442583   0.09032725
H    -0.54912171  -1.72798024  -0.12190672
6
# step=    39 energy=-149.93374190
O    -3.08701419   0.15464823  -0.05141569
H    -2.10586547   0.07715931  -0.02448412
H    -3.25774527   1.09583789   0.26758585
O    -0.64710592  -0.75019239   0.04819032
H     0.34598262  -0.49178880   0.09639186
H    -0.55290967  -1.74067972  -0.12909620
6
# step=    40 energy=-149.93258283
O    -3.09177867   0.15540839  -0.05323031
H    -2.10489317   0.10057941  -0.01963785
H    -3.25184068   1.09969812   0.27587180
O    -0.64274076  -0.75403781   0.04923435
H     0.35014487  -0.46025998   0.10220819
H    -0.55755961  -1.75012475  -0.13571545
6
# step=    41 energy=-149.93136506
O    -3.09660078   0.15638802  -0.05497722
H    -2.10449426   0.12354513  -0.01476489
H    -3.24516095   1.10037127   0.28304447
O    -0.63794050  -0.75798440   0.05026060
H     0.34812792  -0.43117057   0.10755013
H    -0.56227166  -1.75538172  -0.14157244
6
# step=    42 energy=-149.93049221
O    -3.10140493   0.15762362  -0.05663788
H    -2.10515493   0.14538509  -0.01011920
H    -3.23837524   1.09788088   0.28905263
O    -0.63274756  -0.76198397   0.05127574
H     0.33978540  -0.40559116   0.11223001
H    -0.56627486  -1.75608709  -0.14657779
6
# step=    43 energy=-149.92996036
O    -3.10611815   0.15912534  -0.05820323
H    -2.10725999   0.16542355  -0.00596029
H    -3.23220818   1.09267663   0.29400396
O    -0.62724592  -0.76597324   0.05229041
H     0.32567933  -0.38426815   0.11610793
H    -0.56884548  -1.75244351  -0.15075511
6
# step=    44 energy=-149.92942704
O    -3.11067735   0.16087871  -0.05967411
H    -2.11102096   0.18301383  -0.00253775
H    -3.22739576   1.08557483   0.29815585
O    -0.62155758  -0.76987973   0.05331901
H     0.30704324  -0.36756388   0.11910014
H    -0.56932728  -1.74518644  -0.15424526
6
# step=    45 energy=-149.92842848
O    -3.11503533   0.16284882  -0.06106058
H    -2.11643254   0.19757856  -0.00007460
H    -3.22463667   1.07765550   0.30188777
O    -0.61583769  -0.77362962   0.05437901
H     0.28573100  -0.35540219   0.12118643
H    -0.56715305  -1.73551698  -0.15730318
6
# step=    46 energy=-149.92670264
O    -3.11916535   0.16498763  -0.06237992
H    -2.12326204   0.20865075   0.00124917
H    -3.22454117   1.07011055   0.30565083
O    -0.61026663  -0.77715725   0.05548996
H     0.26411822  -0.34724135   0.12241300
H    -0.56186273  -1.72498397  -0.16028221
6
# step=    47 energy=-149.92450356
O    -3.12306358   0.16724429  -0.06365311
H    -2.13107189   0.21590950   0.00131080
H    -3.22758081   1.06405042   0.30989444
O    -0.60503643  -0.78041459   0.05667196
H     0.24490513  -0.34211655   0.12288417
H    -0.55311171  -1.71529657  -0.16359969
6
# step=    48 energy=-149.92268779
O    -3.12674915   0.16957671  -0.06490007
H    -2.13927140   0.21920404   0.00005519
H    -3.23404297   1.06029892   0.31497978
O    -0.60032916  -0.78337777   0.05794381
H     0.23077416  -0.33880026   0.12273614
H    -0.54066625  -1.70806377  -0.16767966
6
# step=    49 energy=-149.92235344
O    -3.13026083   0.17196085  -0.06613477
H    -2.14719079   0.21856250  -0.00249936
H    -3.24399330   1.05922654   0.32109856
O    -0.59628844  -0.78604704   0.05932067
H     0.22390917  -0.33609545   0.12209298
H    -0.52439625  -1.70449260  -0.17287524
6
# step=    50 energy=-149.92410574
O    -3.13364925   0.17439362  -0.06736102
H    -2.15416948   0.21419013  -0.00625836
H    -3.25724303   1.06067128   0.32821822
O    -0.59299043  -0.78843950   0.06081062
H     0.22548101  -0.33319079   0.12102058
H    -0.50429310  -1.70511437  -0.17938264
6
# step=    51 energy=-149.92749715
O    -3.13696886   0.17689010  -0.06857162
H    -2.15966284   0.20646253  -0.01105335
H    -3.27333585   1.06397309   0.33607787
O    -0.59042132  -0.79058206   0.06241149
H     0.23529585  -0.32991582   0.11950482
H    -0.48051393  -1.70962644  -0.18717603
6
# step=    52 energy=-149.93122452
O    -3.14027305   0.17947829  -0.06975219
H    -2.16335586   0.19589683  -0.01665726
H    -3.29158768   1.06812482   0.34424826
O    -0.58847283  -0.79251054   0.06411030
H     0.25183061  -0.32674399   0.11747027
H    -0.45341256  -1.71693963  -0.19599957
6
# step=    53 energy=-149.93394124
O    -3.14360812   0.18218974  -0.07088659
H    -2.16524055   0.18310601  -0.02280620
H    -3.31116156   1.07199056   0.35222743
O    -0.58696436  -0.79427083   0.06588383
H     0.27265834  -0.32454899   0.11483004
H    -0.42355592  -1.72542819  -0.20541576
6
# step=    54 energy=-149.93496362
O    -3.14700718   0.18504890  -0.07196189
H    -2.16563378   0.16875690  -0.02921800
H    -3.33115024   1.07451832   0.35953798
O    -0.58567864  -0.79591836   0.06770059
H     0.29501607  -0.32427081   0.11153815
H    -0.39171842  -1.73327106  -0.21488601
6
# step=    55 energy=-149.93442760
O    -3.15048728   0.18806455  -0.07297242
H    -2.16513166   0.15353673  -0.03560570
H    -3.35065613   1.07490248   0.36580743
O    -0.58439522  -0.79751453   0.06952410
H     0.31628682  -0.32664663   0.10762107
H    -0.35883848  -1.73877078  -0.22385835
6
# step=    56 energy=-149.93300054
O    -3.15405064   0.19122492  -0.07392259
H    -2.16451099   0.13812522  -0.04168700
H    -3.36886116   1.07268277   0.37082362
O    -0.58291500  -0.79912080   0.07131719
H     0.33430725  -0.33206503   0.10318410
H    -0.32594440  -1.74058671  -0.23184298
6
# step=    57 energy=-149.93145730
O    -3.15768861   0.19449631  -0.07482824
H    -2.16460125   0.12316913  -0.04719109
H    -3.38508066   1.06778648   0.37456528
O    -0.58107560  -0.80079260   0.07304592
H     0.34752035  -0.34052106   0.09840160
H    -0.29407054  -1.73787182  -0.23846733
6
# step=    58 energy=-149.93033713
O    -3.16138689   0.19782440  -0.07571676
H    -2.16615481   0.10925728  -0.05186451
H    -3.39879938   1.06052639   0.37721146
O    -0.57876048  -0.80257452   0.07468269
H     0.35503290  -0.35162467   0.09350112
H    -0.26418035  -1.73033502  -0.24351166
6
# step=    59 energy=-149.92976515
O    -3.16513063   0.20113781  -0.07662596
H    -2.16973569   0.09689527  -0.05547734
H    -3.40968983   1.05156324   0.37913237
O    -0.57590460  -0.80449735   0.07620846
H     0.35663194  -0.36462596   0.08874749
H    -0.23710220  -1.71825789  -0.24693118
6
# step=    60 energy=-149.92945738
O    -3.16890911   0.20435410  -0.07760172
H    -2.17563701   0.08648049  -0.05782998
H    -3.41761302   1.04183263   0.38086024
O    -0.57249859  -0.80657684   0.07761441
H     0.35278808  -0.37844349   0.08442768
H    -0.21347441  -1.70248368  -0.24886951
6
# step=    61 energy=-149.92890956
O    -3.17272040   0.20738838  -0.07869431
H    -2.18383033   0.07827930  -0.05875990
H    -3.42259861   1.03243055   0.38303566
O    -0.56859036  -0.80881393   0.07890326
H     0.34463938  -0.39170254   0.08083533
H    -0.19369781  -1.68437650  -0.24966294
6
# step=    62 energy=-149.92773716
O    -3.17657591   0.21016453  -0.07995304
H    -2.19394894   0.07241098  -0.05814661
H    -3.42480166   1.02445649   0.38632587
O    -0.56428200  -0.81119636   0.08008977
H     0.33391917  -0.40280418   0.07825291
H    -0.17790150  -1.66573207  -0.24982850
6
# step=    63 energy=-149.92604515
O    -3.18050392   0.21262740  -0.08141984
H    -2.20530914   0.06884334  -0.05591344
H    -3.42443991   1.01882916   0.39132001
O    -0.55971773  -0.81370139   0.08119968
H     0.32277210  -0.41005302   0.07693141
H    -0.16593605  -1.64861360  -0.25002399
6
# step=    64 energy=-149.92458054
O    -3.18455024   0.21475335  -0.08312260
H    -2.21697647   0.06740318  -0.05202614
H    -3.42172749   1.01611150   0.39841881
O    -0.55505959  -0.81629913   0.08226628
H     0.31341260  -0.41186601   0.07706848
H    -0.15741095  -1.63509400  -0.25096862
6
# step=    65 energy=-149.92441224
O    -3.18877282   0.21655557  -0.08506943
H    -2.22788161   0.06780225  -0.04649173
H    -3.41682938   1.01639408   0.40774542
O    -0.55045268  -0.81895549   0.08332401
H     0.30764533  -0.40705698   0.07878670
H    -0.15178587  -1.62691848  -0.25332226
6
# step=    66 energy=-149.92619046
O    -3.19322791   0.21808172  -0.08724460
H    -2.23698475   0.06967351  -0.03936498
H    -3.40985958   1.01927348   0.41910004
O    -0.54599038  -0.82163370   0.08439993
H     0.30637782  -0.39514419   0.08211177
H    -0.14850031  -1.62514904  -0.25754071
6
# step=    67 energy=-149.92953629
O    -3.19795283   0.21940572  -0.08960858
H    -2.24348358   0.07261122  -0.03076187
H    -3.40092121   1.02393342   0.43198018
O    -0.54169084  -0.82429726   0.08550675
H     0.30933772  -0.37656596   0.08695359
H    -0.14709373  -1.62989206  -0.26375124
6
# step=    68 energy=-149.93317259
O    -3.20295431   0.22061631  -0.09210429
H    -2.24701630   0.07621250  -0.02086915
H    -3.39015763   1.02931375   0.44567550
O    -0.53749524  -0.82691626   0.08664124
H     0.31517663  -0.35265732   0.09310426
H    -0.14726946  -1.64024755  -0.27171050
6
# step=    69 energy=-149.93571157
O    -3.20820210   0.22180379  -0.09466517
H    -2.24776861   0.08010709  -0.00995287
H    -3.37779536   1.03431111   0.45939465
O    -0.53329356  -0.82947166   0.08778763
H     0.32191756  -0.32538433   0.10025651
H    -0.14888262  -1.65452588  -0.28086633
6
# step=    70 energy=-149.93640710
O    -3.21362936   0.22304880  -0.09722201
H    -2.24644293   0.08396456   0.00163517
H    -3.36416881   1.03795105   0.47238140
O    -0.52896291  -0.83195501   0.08892375
H     0.32749518  -0.29697533   0.10803537
H    -0.15186666  -1.67061898  -0.29048857
6
# step=    71 energy=-149.93538186
O    -3.21914140   0.22441533  -0.09970880
H    -2.24410777   0.08748354   0.01346327
H    -3.34972076   1.03950628   0.48400438
O    -0.52439983  -0.83436553   0.09002781
H     0.33017160  -0.26958564   0.11603501
H    -0.15614292  -1.68637895  -0.29981551
6
# step=    72 energy=-149.93337256
O    -3.22462972   0.22594750  -0.10206783
H    -2.24198296   0.09037428   0.02504238
H    -3.33498191   1.03856107   0.49381761
O    -0.51953914  -0.83670623   0.09108366
H     0.32875848  -0.24506453   0.12385262
H    -0.16155132  -1.69990908  -0.30817466
6
# step=    73 energy=-149.93128756
O    -3.22998711   0.22766901  -0.10425383
H    -2.24122508   0.09234422   0.03586074
H    -3.32053834   1.03503275   0.50159463
O    -0.51436083  -0.83898078   0.09208409
H     0.32268555  -0.22482568   0.13111408
H    -0.16781463  -1.70974095  -0.31506213
6
# step=    74 energy=-149.92981721
O    -3.23511986   0.22958398  -0.10623712
H    -2.24275792   0.09309092   0.04542268
H    -3.30699493   1.02916205   0.50734062
O    -0.50889036  -0.84119181   0.09303227
H     0.31198759  -0.20978668   0.13749119
H    -0.17453070  -1.71491906  -0.32018558
6
# step=    75 energy=-149.92920639
O    -3.23995606   0.23167874  -0.10800513
H    -2.24716268   0.09230277   0.05328458
H    -3.29493977   1.02147966   0.51128524
O    -0.50319657  -0.84334071   0.09394212
H     0.29726651  -0.20033872   0.14271356
H    -0.18118151  -1.71503017  -0.32348387
6
# step=    76 energy=-149.92921755
O    -3.24445041   0.23392468  -0.10956249
H    -2.25462214   0.08966630   0.05908641
H    -3.28490923   1.01274914   0.51385561
O    -0.49738889  -0.84542875   0.09483785
H     0.27965280  -0.19632009   0.14657930
H    -0.18715228  -1.71020808  -0.32513564
6
# step=    77 energy=-149.92928693
O    -3.24858723   0.23628307  -0.11092960
H    -2.26491014   0.08487843   0.06257921
H    -3.27735220   1.00388020   0.51562530
O    -0.49161242  -0.84745930   0.09575343
H     0.26075632  -0.19699461   0.14896606
H    -0.19175909  -1.70112224  -0.32556051
6
# step=    78 energy=-149.92885565
O    -3.25238165   0.23871197  -0.11213911
H    -2.27742351   0.07766147   0.06364581
H    -3.27259620   0.99581007   0.51723535
O    -0.48603895  -0.84943978   0.09673152
H     0.24257439  -0.20106918   0.14983804
H    -0.19428452  -1.68893534  -0.32540642
6
# step=    79 energy=-149.92778316
O    -3.25587764   0.24117434  -0.11323043
H    -2.29125723   0.06778013   0.06231029
H    -3.27082088   0.98936366   0.51929189
O    -0.48085227  -0.85138148   0.09782161
H     0.22731765  -0.20680575   0.14924016
H    -0.19402055  -1.67520169  -0.32550989
6
# step=    80 energy=-149.92661124
O    -3.25914213   0.24364552  -0.11424270
H    -2.30532431   0.05506197   0.05873285
H    -3.27204155   0.98511689   0.52225772
O    -0.47622620  -0.85329551   0.09907650
H     0.21712070  -0.21228009   0.14727251
H    -0.19032102  -1.66167695  -0.32681257
6
# step=    81 energy=-149.92637009
O    -3.26225473   0.24611756  -0.11520789
H    -2.31851695   0.03942646   0.05318950
H    -3.27610283   0.98329556   0.52636447
O    -0.47229618  -0.85518525   0.10054603
H     0.21364656  -0.21578903   0.14404827
H    -0.18267168  -1.65002799  -0.33022119
6
# step=    82 energy=-149.92786332
O    -3.26529321   0.24859774  -0.11614556
H    -2.32989377   0.02093069   0.04604126
H    -3.28267935   0.98373724   0.53157003
O    -0.46913020  -0.85703915   0.10226687
H     0.21767590  -0.21630189   0.13965583
H    -0.17078772  -1.64148147  -0.33641684
6
# step=    83 energy=-149.93092685
O    -3.26831899   0.25110260  -0.11706117
H    -2.33887160  -0.00017851   0.03769692
H    -3.29128607   0.98592615   0.53757729
O    -0.46670732  -0.85883135   0.10425019
H     0.22884608  -0.21375704   0.13415153
H    -0.15472696  -1.63650855  -0.34565874
6
# step=    84 energy=-149.93438286
O    -3.27136864   0.25365082  -0.11794928
H    -2.34537289  -0.02344171   0.02856931
H    -3.30131299   0.98909823   0.54391618
O    -0.46491394  -0.86053308   0.10647377
H     0.24570760  -0.20902691   0.12758791
H    -0.13495993  -1.63469143  -0.35767396
6
# step=    85 energy=-149.93677929
O    -3.27445173   0.25625556  -0.11879947
H    -2.34985384  -0.04819657   0.01904245
H    -3.31207943   0.99238802   0.55005963
O    -0.46356459  -0.86212634   0.10888228
H     0.26608873  -0.20356925   0.12006002
H    -0.11235396  -1.63486765  -0.37169568
6
# step=    86 energy=-149.93724701
O    -3.27755443   0.25891788  -0.11960287
H    -2.35319717  -0.07361483   0.00946202
H    -3.32288963   0.99497173   0.55553467
O    -0.46243714  -0.86361055   0.11139539
H     0.28756765  -0.19897546   0.11174178
H    -0.08807534  -1.63547666  -0.38662743
6
# step=    87 energy=-149.93585634
O    -3.28064835   0.26162388  -0.12035777
H    -2.35651623  -0.09877053   0.00014180
H    -3.33308155   0.99617714   0.56000702
O    -0.46130732  -0.86500078   0.11392077
H     0.30786877  -0.19661169   0.10289399
H    -0.06343988  -1.63494249  -0.40125938
6
# step=    88 energy=-149.93340780
O    -3.28370131   0.26434593  -0.12107334
H    -2.36093781  -0.12273049  -0.00862669
H    -3.34206541   0.99555097   0.56333191
O    -0.45997456  -0.86632170   0.11636729
H     0.32511413  -0.19741971   0.09384686
H    -0.03975647  -1.63196647  -0.41446384
6
# step=    89 energy=-149.93094932
O    -3.28668693   0.26704661  -0.12177115
H    -2.36741802  -0.14464747  -0.01656851
H    -3.34934973   0.99288681   0.56557363
O    -0.45827797  -0.86760153   0.11865536
H     0.33794635  -0.20184669   0.08497118
H    -0.01819969  -1.62569186  -0.42533242
6
# step=    90 energy=-149.92931418
O    -3.28959122   0.26968361  -0.12248464
H    -2.37661507  -0.16383947  -0.02342526
H    -3.35455490   0.98822132   0.56699917
O    -0.45610480  -0.86886795   0.12072351
H     0.34557158  -0.20984401   0.07664987
H     0.00027524  -1.61576634  -0.43325426
6
# step=    91 energy=-149.92883180
O    -3.29241582   0.27221476  -0.12325687
H    -2.38881472  -0.17984775  -0.02895862
H    -3.35741675   0.98180650   0.56805015
O    -0.45339528  -0.87014610   0.12253181
H     0.34776817  -0.22088598   0.06925539
H     0.01498133  -1.60234937  -0.43795471
6
# step=    92 energy=-149.92925329
O    -3.29517901   0.27460316  -0.12413660
H    -2.40389263  -0.19247921  -0.03295698
H    -3.35778478   0.97406211   0.56929438
O    -0.45014621  -0.87145781   0.12406411
H     0.34488974  -0.23398703   0.06313086
H     0.02553163  -1.58609934  -0.43951717
6
# step=    93 energy=-149.92989899
O    -3.29791631   0.27682369  -0.12517331
H    -2.42131009  -0.20184067  -0.03524566
H    -3.35561752   0.96550587   0.57135541
O    -0.44641246  -0.87282173   0.12533021
H     0.33785910  -0.24773107   0.05856906
H     0.03186932  -1.56814341  -0.43839798
6
# step=    94 energy=-149.93001933
O    -3.30068031   0.27887009  -0.12641132
H    -2.44015029  -0.20835398  -0.03569688
H    -3.35097232   0.95666335   0.57482258
O    -0.44230327  -0.87425315   0.12636733
H     0.32811376  -0.26034677   0.05579094
H     0.03428655  -1.55001167  -0.43542140
6
# step=    95 energy=-149.92927932
O    -3.30353766   0.28075985  -0.12788368
H    -2.45920290  -0.21273259  -0.03423592
H    -3.34398938   0.94797312   0.58015303
O    -0.43797048  -0.87576233   0.12723831
H     0.31745463  -0.26986345   0.05493086
H     0.03340840  -1.53351530  -0.43173066
6
# step=    96 energy=-149.92811290
O    -3.30656176   0.28253451  -0.12960665
H    -2.47710763  -0.21590642  -0.03084556
H    -3.33487575   0.93970966   0.58758500
O    -0.43358577  -0.87735071   0.12802462
H     0.30776407  -0.27437759   0.05603340
H     0.03012025  -1.52054432  -0.42866901
6
# step=    97 energy=-149.92758766
O    -3.30982003   0.28425377  -0.13157559
H    -2.49255997  -0.21888932  -0.02557471
H    -3.32389549   0.93194497   0.59708252
O    -0.42930741  -0.87900604   0.12881275
H     0.30061056  -0.27242196   0.05906160
H     0.02542432  -1.51277530  -0.42757265
6
# step=    98 energy=-149.92866099
O    -3.31335629   0.28598293  -0.13376225
H    -2.50455530  -0.22260089  -0.01855907
H    -3.31137228   0.92456146   0.60832250
O    -0.42524509  -0.88069912   0.12967553
H     0.29684980  -0.26335554   0.06390734
H     0.02024043  -1.51132404  -0.42949194
6
# step=    99 energy=-149.93131922
O    -3.31717329   0.28777720  -0.13611406
H    -2.51262253  -0.22768215  -0.01005348
H    -3.29769828   0.91730778   0.62072818
O    -0.42143560  -0.88238643   0.13065396
H     0.29639586  -0.24762263   0.07039069
H     0.01520774  -1.51643336  -0.43491239
6
# step=   100 energy=-149.93441669
O    -3.32122596   0.28966987  -0.13855880
H    -2.51696864  -0.23437125  -0.00045327
H    -3.28332507   0.90987287   0.63355612
O    -0.41783847  -0.88402120   0.13174856
H     0.29829563  -0.22671667   0.07825411
H     0.01056939  -1.52734158  -0.44360171
6
# step=   101 energy=-149.93642894
O    -3.32542796   0.29166775  -0.14101285
H    -2.51844461  -0.24249314   0.00971099
H    -3.26873910   0.90196224   0.64601031
O    -0.41435685  -0.88556634   0.13292432
H     0.30107841  -0.20283729   0.08716314
H     0.00620260  -1.54243227  -0.45467660
6
# step=   102 energy=-149.93642784
O    -3.32966647   0.29375349  -0.14338987
H    -2.51834374  -0.25155909   0.01980507
H    -3.25443711   0.89336304   0.65734593
O    -0.41087311  -0.88700143   0.13412548
H     0.30318535  -0.17842520   0.09671866
H     0.00176931  -1.55958964  -0.46684806
6
# step=   103 energy=-149.93451915
O    -3.33382069   0.29589276  -0.14560914
H    -2.51812686  -0.26092564   0.02914490
H    -3.24090136   0.88398692   0.66695046
O    -0.40728101  -0.88832290   0.13529266
H     0.30330005  -0.15575968   0.10648157
H    -0.00310413  -1.57659734  -0.47872189
6
# step=   104 energy=-149.93161366
O    -3.33777908   0.29804296  -0.14760303
H    -2.51916883  -0.26995384   0.03705973
H    -3.22857426   0.87388906   0.67440060
O    -0.40350516  -0.88954033   0.13637649
H     0.30052367  -0.13669925   0.11600322
H    -0.00869213  -1.59145596  -0.48904756
6
# step=   105 energy=-149.92887554
O    -3.34145215   0.30016081  -0.14932266
H    -2.52257867  -0.27813118   0.04294905
H    -3.21783542   0.86326780   0.67949546
O    -0.39950855  -0.89067227   0.13734562
H     0.29442689  -0.12255600   0.12485286
H    -0.01510106  -1.60257515  -0.49687333
6
# step=   106 energy=-149.92720861
O    -3.34477940   0.30220783  -0.15074100
H    -2.52909973  -0.28514604   0.04632343
H    -3.20898526   0.85245152   0.68226696
O    -0.39529313  -0.89174336   0.13818991
H     0.28503680  -0.11405625   0.13263665
H    -0.02225084  -1.60885865  -0.50161818
6
# step=   107 energy=-149.92695130
O    -3.34773073   0.30415306  -0.15185320
H    -2.53906618  -0.29092217   0.04682919
H    -3.20223787   0.84187986   0.68296980
O    -0.39089958  -0.89278249   0.13892070
H     0.27280908  -0.11133726   0.13900733
H    -0.02987951  -1.60972747  -0.50309503
6
# step=   108 energy=-149.92780565
O    -3.35030490   0.30597464  -0.15267520
H    -2.55238550  -0.29562974   0.04426803
H    -3.19771705   0.83207678   0.68205515
O    -0.38640839  -0.89382171   0.13957014
H     0.25860923  -0.11393837   0.14367231
H    -0.03755349  -1.60513346  -0.50152318
6
# step=   109 energy=-149.92899382
O    -3.35252979   0.30766326  -0.15324203
H    -2.56854934  -0.29968562   0.03861582
H    -3.19544594   0.82359707   0.68012404
O    -0.38193590  -0.89489579   0.14019097
H     0.24367627  -0.12078867   0.14641203
H    -0.04468944  -1.59558018  -0.49754349
6
# step=   110 energy=-149.92963665
O    -3.35446198   0.30922654  -0.15360414
H    -2.58669224  -0.30373233   0.03002486
H    -3.19534238   0.81695001   0.67785048
O    -0.37762363  -0.89604085   0.14085608
H     0.22953452  -0.13025283   0.14709805
H    -0.05058972  -1.58211377  -0.49221308
6
# step=   111 energy=-149.92926792
O    -3.35618143   0.31069069  -0.15382056
H    -2.60569621  -0.30857911   0.01880442
H    -3.19722855   0.81252184   0.67588281
O    -0.37362424  -0.89728960   0.14165572
H     0.21784279  -0.14028740   0.14569624
H    -0.05448682  -1.56625067  -0.48695467
6
# step=   112 energy=-149.92823451
O    -3.35778130   0.31209826  -0.15395053
H    -2.62434256  -0.31509582   0.00538290
H    -3.20084903   0.81050882   0.67474377
O    -0.37008281  -0.89866333   0.14269054
H     0.21016533  -0.14874038   0.14225335
H    -0.05560746  -1.54980940  -0.48342880
6
# step=   113 energy=-149.92760825
O    -3.35935401   0.31350110  -0.15404529
H    -2.64150675  -0.32405676  -0.00974212
H    -3.20589058   0.81087168   0.67475177
O    -0.36711242  -0.90016318   0.14405782
H     0.20767472  -0.15378221   0.13687353
H    -0.05327393  -1.53461744  -0.48329231
6
# step=   114 energy=-149.92844199
O    -3.36097554   0.31494856  -0.15414222
H    -2.65636173  -0.33594792  -0.02604857
H    -3.21199727   0.81332189   0.67598265
O    -0.36476872  -0.90176552   0.14582951
H     0.21085802  -0.15435654   0.12970293
H    -0.04705030  -1.52212400  -0.48784232
6
# step=   115 energy=-149.93083035
O    -3.36269193   0.31647388  -0.15426284
H    -2.66854077  -0.35078303  -0.04301596
H    -3.21878009   0.81734244   0.67827894
O    -0.36303111  -0.90342623   0.14802631
H     0.21934007  -0.15046527   0.12094031
H    -0.03691011  -1.51303439  -0.49762737
6
# step=   116 energy=-149.93366095
O    -3.36451486   0.31808561  -0.15441528
H    -2.67821346  -0.36801986  -0.06015001
H    -3.22583441   0.82224821   0.68130561
O    -0.36179808  -0.90509448   0.15060206
H     0.23193442  -0.14312933   0.11085932
H    -0.02333906  -1.50713506  -0.51221198
6
# step=   117 energy=-149.93537723
O    -3.36642734   0.31976709  -0.15459996
H    -2.68601753  -0.38662988  -0.07699664
H    -3.23276395   0.82727676   0.68463792
O    -0.36090448  -0.90672672   0.15344895
H     0.24692363  -0.13403230   0.09982118
H    -0.00729260  -1.50343845  -0.53025500
6
# step=   118 energy=-149.93503719
O    -3.36839524   0.32148251  -0.15481597
H    -2.69286871  -0.40528371  -0.09313498
H    -3.23919899   0.83167976   0.68785195
O    -0.36015363  -0.90829251   0.15641938
H     0.26241978  -0.12505129   0.08826996
H     0.00997037  -1.50056265  -0.54985024
6
# step=   119 energy=-149.93279945
O    -3.37038018   0.32318677  -0.15506606
H    -2.69973917  -0.42258376  -0.10817069
H    -3.24480874   0.83479612   0.69059759
O    -0.35934971  -0.90977345   0.15935388
H     0.27666671  -0.11787251   0.07670645
H     0.02709995  -1.49713099  -0.56894716
6
# step=   120 energy=-149.92967107
O    -3.37235029   0.32483578  -0.15535927
H    -2.70747625  -0.43727821  -0.12174223
H    -3.24930975   0.83610109   0.69264697
O    -0.35832132  -0.91116022   0.16210514
H     0.28823186  -0.11376320   0.06564816
H     0.04284038  -1.49204656  -0.58569545
6
# step=   121 energy=-149.92690311
O    -3.37428741   0.32639473  -0.15571158
H    -2.71668930  -0.44841704  -0.13353701
H    -3.25247036   0.83523101   0.69391858
O    -0.35693450  -0.91245081   0.16455379
H     0.29609844  -0.11347723   0.05558881
H     0.05615225  -1.48461737  -0.59865446
6
# step=   122 energy=-149.92543733
O    -3.37619043   0.32784350  -0.15614517
H    -2.72769606  -0.45544148  -0.14330683
H    -3.25411068   0.83198686   0.69448044
O    -0.35509786  -0.91365001   0.16661589
H     0.29968994  -0.11724014   0.04696885
H     0.06626994  -1.47457899  -0.60688255
6
# step=   123 energy=-149.92558451
O    -3.37807408   0.32917837  -0.15668628
H    -2.74049430  -0.45822067  -0.15087016
H    -3.25409928   0.82632812   0.69453689
O    -0.35276589  -0.91476866   0.16824336
H     0.29886355  -0.12475566   0.04016547
H     0.07271013  -1.46208508  -0.60995416
6
# step=   124 energy=-149.92694872
O    -3.37996479   0.33041200  -0.15736133
H    -2.75473469  -0.45707846  -0.15611544
H    -3.25235826   0.81837348   0.69440415
O    -0.34994553  -0.91582258   0.16942372
H     0.29391891  -0.13519024   0.03548537
H     0.07527965  -1.44771351  -0.60798089
6
# step=   125 energy=-149.92860119
O    -3.38190045   0.33157637  -0.15819340
H    -2.76974523  -0.45281437  -0.15903116
H    -3.24887628   0.80838507   0.69447114
O    -0.34669728  -0.91683415   0.17018589
H     0.28560922  -0.14718275   0.03313082
H     0.07411647  -1.43244131  -0.60165926
6
# step=   126 energy=-149.92951706
O    -3.38393039   0.33272414  -0.15919961
H    -2.78461482  -0.44665296  -0.15972396
H    -3.24371121   0.79672158   0.69514401
O    -0.34312757  -0.91783282   0.17060391
H     0.27508678  -0.15893508   0.03317400
H     0.06970712  -1.41757266  -0.59227147
6
# step=   127 energy=-149.92916527
O    -3.38611007   0.33392393  -0.16038845
H    -2.79830738  -0.44010851  -0.15840906
H    -3.23698632   0.78378766   0.69678421
O    -0.33937701  -0.91885079   0.17079285
H     0.26377085  -0.16838715   0.03555977
H     0.06285663  -1.40464021  -0.58161394
6
# step=   128 energy=-149.92795466
O    -3.38849141   0.33524946  -0.16175746
H    -2.80981911  -0.43476718  -0.15538837
H    -3.22888582   0.76998907   0.69965007
O    -0.33560150  -0.91991493   0.17089639
H     0.25312921  -0.17350657   0.04012884
H     0.05460288  -1.39524571  -0.57182213
6
# step=   129 energy=-149.92711054
O    -3.39111042   0.33676384  -0.16329166
H    -2.81837330  -0.43200262  -0.15102594
H    -3.21965035   0.75569796   0.70385014
O    -0.33194457  -0.92103719   0.17106415
H     0.24438713  -0.17268838   0.04665460
H     0.04605683  -1.39081131  -0.56504732
6
# step=   130 energy=-149.92781415
O    -3.39397328   0.33850170  -0.16496178
H    -2.82360541  -0.43268773  -0.14573174
H    -3.20957840   0.74124059   0.70931246
O    -0.32850830  -0.92220761   0.17142038
H     0.23824605  -0.16517436   0.05487435
H     0.03818359  -1.39226183  -0.56300128
6
# step=   131 energy=-149.93015559
O    -3.39704516   0.34045472  -0.16672222
H    -2.82568002  -0.43699103  -0.13995906
H    -3.19903300   0.72690686   0.71577150
O    -0.32533380  -0.92339476   0.17203289
H     0.23472704  -0.15133837   0.06449207
H     0.03158973  -1.39971472  -0.56648388
6
# step=   132 energy=-149.93290284
O    -3.40025291   0.34257090  -0.16851376
H    -2.82528987  -0.44434901  -0.13419473
H    -3.18842439   0.71294351   0.72279212
O    -0.32239495  -0.92455700   0.17289741
H     0.23321563  -0.13265977   0.07517082
H     0.02640486  -1.41233504  -0.57511533
6
# step=   133 energy=-149.93440362
O    -3.40350011   0.34476749  -0.17027013
H    -2.82350794  -0.45364775  -0.12893633
H    -3.17817540   0.69954515   0.72983003
O    -0.31961351  -0.92565704   0.17394743
H     0.23270279  -0.11135415   0.08653066
H     0.02233903  -1.42848847  -0.58746980
6
# step=   134 energy=-149.93374686
O    -3.40668372   0.34694875  -0.17192449
H    -2.82156038  -0.46351566  -0.12466746
H    -3.16869418   0.68686780   0.73630484
O    -0.31688955  -0.92667064   0.17508221
H     0.23209087  -0.08987425   0.09815152
H     0.01887645  -1.44610566  -0.60152097
6
# step=   135 energy=-149.93121943
O    -3.40970869   0.34902231  -0.17341561
H    -2.82061358  -0.47260718  -0.12183158
H    -3.16035028   0.67504868   0.74167457
O    -0.31412932  -0.92758846   0.17619722
H     0.23043171  -0.07048449   0.10958958
H     0.01548080  -1.46307658  -0.61514689
6
# step=   136 energy=-149.92795657
O    -3.41249904   0.35091136  -0.17469365
H    -2.82162411  -0.47981121  -0.12080903
H    -3.15345174   0.66422072   0.74550334
O    -0.31126153  -0.92841442   0.17720621
H     0.22705440  -0.05499168   0.12040422
H     0.01173117  -1.47754681  -0.62650815
6
# step=   137 energy=-149.92527009
O    -3.41500486   0.35256210  -0.17572461
H    -2.82525970  -0.48437203  -0.12190318
H    -3.14822585   0.65451888   0.74751292
O    -0.30824236  -0.92916366   0.17805250
H     0.22160299  -0.04462081   0.13018520
H     0.00737849  -1.48807917  -0.63424978
6
# step=   138 energy=-149.92408842
O    -3.41720495   0.35394673  -0.17649248
H    -2.83187569  -0.48593774  -0.12533918
H    -3.14480942   0.64608364   0.74761130
O    -0.30505438  -0.92986108   0.17871205
H     0.21402429  -0.03999199   0.13856896
H     0.00235059  -1.49370219  -0.63756296
6
# step=   139 energy=-149.92466338
O    -3.41910157   0.35506077  -0.17699764
H    -2.84150263  -0.48456684  -0.13126023
H    -3.14325369   0.63908060   0.74590153
O    -0.30171186  -0.93053923   0.17919140
H     0.20456145  -0.04114404   0.14522611
H    -0.00324972  -1.49389243  -0.63617615
6
# step=   140 energy=-149.92651338
O    -3.42071421   0.35592082  -0.17725590
H    -2.85380344  -0.48074691  -0.13969339
H    -3.14351762   0.63370900   0.74269256
O    -0.29827232  -0.93123552   0.17952624
H     0.19378028  -0.04750039   0.14985488
H    -0.00913419  -1.48860443  -0.63038815
6
# step=   141 energy=-149.92861327
O    -3.42208621   0.35656981  -0.17730041
H    -2.86810460  -0.47538535  -0.15054618
H    -3.14544785   0.63014375   0.73847998
O    -0.29482475  -0.93199277   0.17978425
H     0.18252454  -0.05783203   0.15223558
H    -0.01485626  -1.47833697  -0.62111952
6
# step=   142 energy=-149.92985292
O    -3.42328488   0.35707630  -0.17717840
H    -2.88349879  -0.46971340  -0.16363925
H    -3.14879083   0.62848949   0.73387860
O    -0.29147419  -0.93285722   0.18006477
H     0.17182357  -0.07034245   0.15226138
H    -0.01984827  -1.46411697  -0.60989127
6
# step=   143 energy=-149.92964034
O    -3.42439242   0.35752588  -0.17694460
H    -2.89896635  -0.46512352  -0.17872996
H    -3.15322092   0.62875703   0.72953866
O    -0.28833300  -0.93387202   0.18049417
H     0.16278773  -0.08284890   0.14993723
H    -0.02345325  -1.44742431  -0.59874775
6
# step=   144 energy=-149.92836676
O    -3.42549345   0.35800771  -0.17665439
H    -2.91353080  -0.46293842  -0.19552823
H    -3.15837221   0.63084320   0.72605659
O    -0.28550860  -0.93506835   0.18121463
H     0.15645850  -0.09308429   0.14536768
H    -0.02498219  -1.43002816  -0.59006853
6
# step=   145 energy=-149.92730256
O    -3.42666145   0.35859803  -0.17635806
H    -2.92643334  -0.46413479  -0.21370130
H    -3.16387082   0.63451690   0.72389171
O    -0.28308538  -0.93645724   0.18236177
H     0.15361387  -0.09911934   0.13873854
H    -0.02381992  -1.41369338  -0.58619697
6
# step=   146 energy=-149.92771564
O    -3.42794670   0.35934419  -0.17609748
H    -2.93727055  -0.46909304  -0.23285247
H    -3.16936106   0.63941447   0.72330412
O    -0.28110476  -0.93802516   0.18403050
H     0.15457656  -0.09980515   0.13030613
H    -0.01958107  -1.39979871  -0.58889477
6
# step=   147 energy=-149.92975613
O    -3.42936872   0.36025455  -0.17590543
H    -2.94604352  -0.47745807  -0.25247505
H    -3.17452148   0.64504433   0.72432076
O    -0.27955050  -0.93973479   0.18623715
H     0.15909322  -0.09507403   0.12041050
H    -0.01228023  -1.38900630  -0.59877237
6
# step=   148 energy=-149.93219334
O    -3.43091823   0.36129998  -0.17580583
H    -2.95311817  -0.48819070  -0.27195217
H    -3.17908480   0.65081757   0.72673385
O    -0.27834380  -0.94153247   0.18890069
H     0.16635396  -0.08594798   0.10948602
H    -0.00241795  -1.38113695  -0.61499405
6
# step=   149 energy=-149.93337363
O    -3.43256759   0.36242694  -0.17581444
H    -2.95909830  -0.49981480  -0.29061202
H    -3.18285452   0.65610401   0.73014347
O    -0.27735622  -0.94335811   0.19185886
H     0.17517402  -0.07421450   0.09804665
H     0.00910025  -1.37535398  -0.63549745
6
# step=   150 energy=-149.93243712
O    -3.43428242   0.36357427  -0.17594005
H    -2.96465590  -0.51073672  -0.30778831
H    -3.18570430   0.66028799   0.73403024
O    -0.27643636  -0.94515145   0.19490673
H     0.18424171  -0.06195289   0.08665830
H     0.02115947  -1.37054146  -0.65757577
6
# step=   151 energy=-149.92975402
O    -3.43603112   0.36468763  -0.17618582
H    -2.97038928  -0.51952403  -0.32288076
H    -3.18756686   0.66281559   0.73783695
O    -0.27543639  -0.94685654   0.19783758
H     0.19233287  -0.05111776   0.07589915
H     0.03264385  -1.36564915  -0.67849207
6
# step=   152 energy=-149.92652006
O    -3.43779166   0.36572920  -0.17655080
H    -2.97673717  -0.52509518  -0.33541064
H    -3.18841913   0.66323066   0.74104538
O    -0.27422980  -0.94842632   0.20047310
H     0.19845055  -0.04326896   0.06631434
H     0.04258956  -1.35989061  -0.69591443
6
# step=   153 energy=-149.92405210
O    -3.43955620   0.36668313  -0.17703188
H    -2.98394516  -0.52681789  -0.34506262
H    -3.18826594   0.66119519   0.74323874
O    -0.27271913  -0.94982738   0.20268010
H     0.20189120  -0.03944347   0.05837648
H     0.05026577  -1.35280379  -0.70813285
6
# step=   154 energy=-149.92322980
O    -3.44133344   0.36755731  -0.17762580
H    -2.99206323  -0.52453409  -0.35170002
H    -3.18712278   0.65649083   0.74414173
O    -0.27083644  -0.95104289   0.20437493
H     0.20225286  -0.04013055   0.05246716
H     0.05519181  -1.34423488  -0.71410362
6
# step=   155 energy=-149.92422074
O    -3.44314072   0.36837933  -0.17832769
H    -3.00091525  -0.51856656  -0.35533633
H    -3.18500816   0.64903670   0.74363856
O    -0.26855060  -0.95206832   0.20551452
H     0.19942066  -0.04527790   0.04890017
H     0.05710432  -1.33434631  -0.71340033
6
# step=   156 energy=-149.92643212
O    -3.44499413   0.36919214  -0.17912680
H    -3.01005966  -0.50977620  -0.35615385
H    -3.18195826   0.63895628   0.74180363
O    -0.26588277  -0.95290976   0.20609722
H     0.19360953  -0.05421606   0.04790673
H     0.05597922  -1.32366011  -0.70629181
6
# step=   157 energy=-149.92874104
O    -3.44691834   0.37005646  -0.18001056
H    -3.01888171  -0.49949523  -0.35455436
H    -3.17802070   0.62655146   0.73891171
O    -0.26289513  -0.95359343   0.20617937
H     0.18536924  -0.06566161   0.04956929
H     0.05208907  -1.31298112  -0.69383625
6
# step=   158 energy=-149.93000465
O    -3.44894759   0.37104521  -0.18096769
H    -3.02669344  -0.48934671  -0.35111774
H    -3.17324317   0.61224566   0.73540182
O    -0.25967945  -0.95416524   0.20587549
H     0.17551880  -0.07782848   0.05382013
H     0.04599097  -1.30332792  -0.67783767
6
# step=   159 energy=-149.92968295
O    -3.45111784   0.37223060  -0.18198888
H    -3.03283599  -0.48100666  -0.34652544
H    -3.16767464   0.59654527   0.73182134
O    -0.25635017  -0.95468327   0.20534969
H     0.16505359  -0.08860138   0.06046403
H     0.03848571  -1.29587250  -0.66074159
6
# step=   160 energy=-149.92827156
O    -3.45345691   0.37366758  -0.18306718
H    -3.03681107  -0.47590265  -0.34147173
H    -3.16137356   0.57999737   0.72875048
O    -0.25303135  -0.95520676   0.20479819
H     0.15500413  -0.09582565   0.06921013
H     0.03053306  -1.29182016  -0.64539362
6
# step=   161 energy=-149.92712068
O    -3.45597472   0.37537750  -0.18419731
H    -3.03841381  -0.47490885  -0.33657842
H    -3.15442227   0.56314429   0.72671027
O    -0.24983600  -0.95578337   0.20441787
H     0.14624947  -0.09771716   0.07971156
H     0.02309855  -1.29220221  -0.63458102
6
# step=   162 energy=-149.92748863
O    -3.45865475   0.37733656  -0.18537237
H    -3.03781660  -0.47814227  -0.33233975
H    -3.14695064   0.54649401   0.72606772
O    -0.24684414  -0.95643840   0.20436397
H     0.13933765  -0.09330079   0.09159318
H     0.01695236  -1.29759955  -0.63039533
6
# step=   163 energy=-149.92943952
O    -3.46144856   0.37947320  -0.18657797
H    -3.03556932  -0.48493375  -0.32911060
H    -3.13916695   0.53051583   0.72695434
O    -0.24408894  -0.95717079   0.20471024
H     0.13438398  -0.08272570   0.10444635
H     0.01249286  -1.30787290  -0.63361505
6
# step=   164 energy=-149.93167182
O    -3.46428206   0.38168038  -0.18778893
H    -3.03250587  -0.49399605  -0.32711884
H    -3.13136458   0.51561508   0.72922026
O    -0.24155230  -0.95795871   0.20543219
H     0.13108341  -0.06728427   0.11782608
H     0.00967735  -1.32205951  -0.64342840
6
# step=   165 energy=-149.93255985
O    -3.46707069   0.38383834  -0.18897029
H    -3.02958134  -0.50373900  -0.32649433
H    -3.12389915   0.50210390   0.73245446
O    -0.23917554  -0.95877062   0.20642644
H     0.12884531  -0.04907305   0.13126611
H     0.00811538  -1.33855332  -0.65773342
6
# step=   166 energy=-149.93135876
O    -3.46973261   0.38583457  -0.19008046
H    -3.02770959  -0.51258949  -0.32730611
H    -3.11715661   0.49020591   0.73606488
O    -0.23688233  -0.95957479   0.20755240
H     0.12698381  -0.03049270   0.14429363
H     0.00726184  -1.35545816  -0.67381216
6
# step=   167 energy=-149.92855738
O    -3.47219851   0.38757757  -0.19107626
H    -3.02764572  -0.51922747  -0.32959243
H    -3.11151410   0.48007303   0.73938867
O    -0.23459930  -0.96034533   0.20867214
H     0.12487445  -0.01380318   0.15645136
H     0.00659085  -1.37093618  -0.68899030
6
# step=   168 energy=-149.92540521
O    -3.47441900   0.38900489  -0.19191889
H    -3.02992211  -0.52272364  -0.33338259
H    -3.10729840   0.47179791   0.74180414
O    -0.23226707  -0.96106583   0.20967576
H     0.12204330  -0.00083127   0.16732594
H     0.00569491  -1.38344586  -0.70106602
6
# step=   169 energy=-149.92319700
O    -3.47637004   0.39008698  -0.19257922
H    -3.03483176  -0.52259554  -0.33871820
H    -3.10475090   0.46541961   0.74282156
O    -0.22984175  -0.96173188   0.21049222
H     0.11819555   0.00716876   0.17657454
H     0.00431622  -1.39185241  -0.70849468
6
# step=   170 energy=-149.92274604
O    -3.47805402   0.39082654  -0.19304032
H    -3.04244417  -0.51880260  -0.34567539
H    -3.10401159   0.46093535   0.74213701
O    -0.22729303  -0.96235223   0.21109003
H     0.11320867   0.00952835   0.18392985
H     0.00234032  -1.39542801  -0.71039551
6
# step=   171 energy=-149.92414283
O    -3.47948609   0.39125136  -0.19329479
H    -3.05256245  -0.51176047  -0.35432431
H    -3.10511543   0.45834134   0.73966728
O    -0.22462254  -0.96294457   0.21147033
H     0.10715866   0.00612922   0.18914009
H    -0.00020225  -1.39379656  -0.70650028
6
# step=   172 energy=-149.92671381
O    -3.48069254   0.39141716  -0.19334798
H    -3.06465701  -0.50240280  -0.36467150
H    -3.10794634   0.45760382   0.73560594
O    -0.22187525  -0.96353403   0.21166891
H     0.10035212  -0.00247647   0.19199461
H    -0.00312366  -1.38703257  -0.69727261
6
# step=   173 energy=-149.92927527
O    -3.48172502   0.39141013  -0.19322230
H    -3.07799349  -0.49205222  -0.37672679
H    -3.11223096   0.45860455   0.73040423
O    -0.21911148  -0.96415793   0.21176242
H     0.09325496  -0.01505065   0.19241821
H    -0.00610606  -1.37571485  -0.68394635
6
# step=   174 energy=-149.93064613
O    -3.48265433   0.39133521  -0.19295414
H    -3.09175143  -0.48222101  -0.39051341
H    -3.11757297   0.46114706   0.72470746
O    -0.21639929  -0.96486320   0.21186614
H     0.08644214  -0.02978060   0.19047172
H    -0.00871928  -1.36087548  -0.66846634
6
# step=   175 energy=-149.93026504
O    -3.48355855   0.39129966  -0.19259031
H    -3.10513584  -0.47437064  -0.40602818
H    -3.12349177   0.46496563   0.71927562
O    -0.21381255  -0.96570029   0.21212740
H     0.08054798  -0.04444053   0.18633567
H    -0.01044219  -1.34392229  -0.65338515
6
# step=   176 energy=-149.92863521
O    -3.48451098   0.39139465  -0.19218485
H    -3.11750274  -0.46962888  -0.42318073
H    -3.12947059   0.46973144   0.71488040
O    -0.21142367  -0.96671566   0.21271002
H     0.07618483  -0.05666784   0.18028825
H    -0.01071666  -1.32647656  -0.64159924
6
# step=   177 energy=-149.92715980
O    -3.48556961   0.39167887  -0.19179564
H    -3.12846418  -0.46853754  -0.44172541
H    -3.13501296   0.47505990   0.71218524
O    -0.20929050  -0.96794364   0.21376412
H     0.07383059  -0.06437060   0.17267417
H    -0.00905111  -1.31009340  -0.63583846
6
# step=   178 energy=-149.92717210
O    -3.48677009   0.39216993  -0.19148016
H    -3.13792485  -0.47092838  -0.46120142
H    -3.13969657   0.48051729   0.71162824
O    -0.20744134  -0.96939822   0.21538336
H     0.07371046  -0.06618529   0.16387902
H    -0.00516557  -1.29592886  -0.63796558
6
# step=   179 energy=-149.92878699
O    -3.48812257   0.39284597  -0.19129015
H    -3.14603353  -0.47597231  -0.48089901
H    -3.14321406   0.48562490   0.71332727
O    -0.20586446  -0.97106425   0.21756316
H     0.07571193  -0.06183347   0.15433005
H     0.00086873  -1.28450464  -0.64833513
6
# step=   180 energy=-149.93073238
O    -3.48961499   0.39365719  -0.19126439
H    -3.15309619  -0.48238614  -0.49992216
H    -3.14540684   0.48988169   0.71702912
O    -0.20450485  -0.97289344   0.22018706
H     0.07937595  -0.05221794   0.14449929
H     0.00858498  -1.27567551  -0.66557761
6
# step=   181 energy=-149.93142691
O    -3.49122211   0.39454339  -0.19142310
H    -3.15948012  -0.48873525  -0.51733696
H    -3.14627499   0.49280456   0.72214094
O    -0.20327309  -0.97480989   0.22305582
H     0.08399258  -0.03915658   0.13488603
H     0.01722618  -1.26882671  -0.68702217
6
# step=   182 energy=-149.93017728
O    -3.49291413   0.39544962  -0.19176680
H    -3.16552405  -0.49371083  -0.53230393
H    -3.14595079   0.49396291   0.72783437
O    -0.20206492  -0.97672132   0.22593764
H     0.08875289  -0.02490030   0.12599488
H     0.02592731  -1.26318252  -0.70946756
6
# step=   183 energy=-149.92749121
O    -3.49466346   0.39633618  -0.19227910
H    -3.17148038  -0.49631637  -0.54417207
H    -3.14465275   0.49300557   0.73318381
O    -0.20078001  -0.97853331   0.22861347
H     0.09288962  -0.01166533   0.11830704
H     0.03387947  -1.25804776  -0.72987730
6
# step=   184 energy=-149.92458841
O    -3.49645018   0.39718381  -0.19293218
H    -3.17749240  -0.49596316  -0.55253802
H    -3.14263508   0.48967809   0.73730491
O    -0.19933336  -0.98016294   0.23090603
H     0.09577210  -0.00130409   0.11224766
H     0.04043245  -1.25292284  -0.74580477
6
# step=   185 energy=-149.92270023
O    -3.49826743   0.39799607  -0.19369328
H    -3.18359729  -0.49249420  -0.55727178
H    -3.14014053   0.48382201   0.73946668
O    -0.19765812  -0.98154910   0.23269291
H     0.09695031   0.00486507   0.10816171
H     0.04513678  -1.24752229  -0.75555945
6
# step=   186 energy=-149.92256955
O    -3.50012316   0.39879883  -0.19452973
H    -3.18973152  -0.48616373  -0.55849999
H    -3.13736606   0.47536190   0.73915525
O    -0.19570492  -0.98265544   0.23390464
H     0.09615382   0.00608708   0.10631714
H     0.04773361  -1.24175734  -0.75817966
6
# step=   187 energy=-149.92422363
O    -3.50202206   0.39963101  -0.19540379
H    -3.19567806  -0.47767974  -0.55658518
H    -3.13446914   0.46438682   0.73612213
O    -0.19346064  -0.98346057   0.23451013
H     0.09329325   0.00216241   0.10692495
H     0.04811758  -1.23577436  -0.75337196
6
# step=   188 energy=-149.92694501
O    -3.50396317   0.40054058  -0.19627446
H    -3.20108791  -0.46820815  -0.55218145
H    -3.13155594   0.45121035   0.73048160
O    -0.19095625  -0.98396615   0.23453125
H     0.08850624  -0.00641924   0.11007827
H     0.04638884  -1.22995187  -0.74169567
6
# step=   189 energy=-149.92954786
O    -3.50595769   0.40158551  -0.19711097
H    -3.20559206  -0.45915800  -0.54617254
H    -3.12863992   0.43625549   0.72270480
O    -0.18824480  -0.98420815   0.23405566
H     0.08213377  -0.01848980   0.11573317
H     0.04287848  -1.22482343  -0.72458911
6
# step=   190 energy=-149.93088170
O    -3.50802564   0.40282300  -0.19789729
H    -3.20886749  -0.45195366  -0.53954357
H    -3.12564207   0.42000280   0.71355742
O    -0.18539640  -0.98425217   0.23323080
H     0.07467805  -0.03230572   0.12373240
H     0.03812450  -1.22105460  -0.70429091
6
# step=   191 energy=-149.93042232
O    -3.51018746   0.40429464  -0.19863380
H    -3.21070838  -0.44778130  -0.53324617
H    -3.12241253   0.40296184   0.70401014
O    -0.18249541  -0.98418521   0.23225312
H     0.06675341  -0.04570158   0.13382513
H     0.03283377  -1.21940782  -0.68370682
6
# step=   192 energy=-149.92869266
O    -3.51245590   0.40601231  -0.19933655
H    -3.21109958  -0.44733598  -0.52806908
H    -3.11876921   0.38563768   0.69510578
O    -0.17963173  -0.98410393   0.23134616
H     0.05900921  -0.05636245   0.14568972
H     0.02780225  -1.22065135  -0.66608898
6
# step=   193 energy=-149.92709148
O    -3.51482949   0.40794962  -0.20003232
H    -3.21026115  -0.45065494  -0.52454734
H    -3.11455329   0.36850012   0.68779147
O    -0.17688595  -0.98409941   0.23072229
H     0.05202463  -0.06223237   0.15895855
H     0.02377735  -1.22539410  -0.65445081
6
# step=   194 energy=-149.92693234
O    -3.51728770   0.41004132  -0.20074914
H    -3.20864006  -0.45710539  -0.52293900
H    -3.10969480   0.35197454   0.68275145
O    -0.17431336  -0.98424148   0.23053438
H     0.04620281  -0.06198086   0.17322843
H     0.02128955  -1.23386362  -0.65081343
6
# step=   195 energy=-149.92831856
O    -3.51978739   0.41218915  -0.20150450
H    -3.20685033  -0.46551864  -0.52326325
H    -3.10427501   0.33646526   0.68028276
O    -0.17193535  -0.98456720   0.23083651
H     0.04170584  -0.05537692   0.18803885
H     0.02052386  -1.24569879  -0.65557930
6
# step=   196 energy=-149.93000734
O    -3.52226681   0.41427648  -0.20229740
H    -3.20557558  -0.47442973  -0.52536653
H    -3.09855217   0.32235831   0.68023654
O    -0.16973804  -0.98507701   0.23157497
H     0.03844694  -0.04340052   0.20286399
H     0.02129875  -1.25989761  -0.66738376
6
# step=   197 energy=-149.93049423
O    -3.52465791   0.41618901  -0.20310779
H    -3.20546140  -0.48236140  -0.52900234
H    -3.09293071   0.30999349   0.68206270
O    -0.16767904  -0.98574059   0.23261845
H     0.03614953  -0.02797780   0.21714818
H     0.02317429  -1.27500703  -0.68358776
6
# step=   198 energy=-149.92917172
O    -3.52689703   0.41783020  -0.20390129
H    -3.20703407  -0.48805072  -0.53390595
H    -3.08789625   0.29965086   0.68494898
O    -0.16570285  -0.98650892   0.23380698
H     0.03445026  -0.01148624   0.23034625
H     0.02561855  -1.28943227  -0.70108893
6
# step=   199 energy=-149.92659115
O    -3.52893286   0.41913058  -0.20463663
H    -3.21065621  -0.49058629  -0.53984927
H    -3.08393836   0.29154114   0.68799230
O    -0.16375458  -0.98732753   0.23499252
H     0.03299275   0.00372994   0.24196403
H     0.02814148  -1.30171156  -0.71700998
6
# step=   200 energy=-149.92395345
O    -3.53073283   0.42005283  -0.20527341
H    -3.21651527  -0.48947055  -0.54668016
H    -3.08147889   0.28579216   0.69035411
O    -0.16178696  -0.98814763   0.23606158
H     0.03148536   0.01570110   0.25159575
H     0.03036590  -1.31068384  -0.72908892
6
# step=   201 energy=-149.92242549
O    -3.53228764   0.42059339  -0.20577824
H    -3.22464123  -0.48462302  -0.55435574
H    -3.08082144   0.28243867   0.69137263
O    -0.15976048  -0.98893411   0.23694287
H     0.02972384   0.02300443   0.25894768
H     0.03204927  -1.31554651  -0.73580744
6
# step=   202 energy=-149.92267229
O    -3.53360893   0.42077941  -0.20612656
H    -3.23492073  -0.47635594  -0.56294981
H    -3.08213039   0.28143268   0.69062115
O    -0.15764600  -0.98966775   0.23760422
H     0.02759616   0.02477908   0.26381950
H     0.03307439  -1.31582043  -0.73634213
6
# step=   203 energy=-149.92464330
O    -3.53471566   0.42066646  -0.20630137
H    -3.24699803  -0.46544588  -0.57256296
H    -3.08539239   0.28264052   0.68795850
O    -0.15544717  -0.99033908   0.23804402
H     0.02510272   0.02073218   0.26605981
H     0.03343342  -1.31134281  -0.73054641
6
# step=   204 energy=-149.92756417
O    -3.53564272   0.42034202  -0.20630028
H    -3.26030623  -0.45309327  -0.58332298
H    -3.09036764   0.28578414   0.68358829
O    -0.15319374  -0.99095366   0.23829879
H     0.02235136   0.01129241   0.26565209
H     0.03324646  -1.30237504  -0.71910217
6
# step=   205 energy=-149.93022444
O    -3.53644657   0.41991521  -0.20613942
H    -3.27422723  -0.44068086  -0.59542250
H    -3.09662202   0.29045317   0.67802997
O    -0.15092256  -0.99153803   0.23844775
H     0.01952862  -0.00240504   0.26275176
H     0.03276724  -1.28958010  -0.70350102
6
# step=   206 energy=-149.93146866
O    -3.53719625   0.41950021  -0.20585321
H    -3.28817370  -0.42954944  -0.60904939
H    -3.10357268   0.29613979   0.67205325
O    -0.14867693  -0.99213774   0.23860921
H     0.01688472  -0.01860070   0.25766499
H     0.03237319  -1.27396712  -0.68597350
6
# step=   207 energy=-149.93078401
O    -3.53796337   0.41919906  -0.20549381
H    -3.30165571  -0.42076667  -0.62428098
H    -3.11054544   0.30227217   0.66657977
O    -0.14650612  -0.99281363   0.23893206
H     0.01471282  -0.03503774   0.25082467
H     0.03254070  -1.25681259  -0.66934412
6
# step=   208 energy=-149.92873147
O    -3.53881290   0.41908637  -0.20512820
H    -3.31433372  -0.41492591  -0.64098143
H    -3.11685470   0.30825350   0.66254002
O    -0.14446003  -0.99363569   0.23957594
H     0.01331145  -0.04921046   0.24275188
H     0.03378442  -1.23950606  -0.65668303
6
# step=   209 energy=-149.92677131
O    -3.53979593   0.41920048  -0.20483099
H    -3.32603768  -0.41204816  -0.65874006
H    -3.12189953   0.31350479   0.66069662
O    -0.14257895  -0.99467226   0.24067675
H     0.01292748  -0.05877152   0.23399964
H     0.03654839  -1.22331444  -0.65069705
6
# step=   210 energy=-149.92627639
O    -3.54094487   0.41954381  -0.20467309
H    -3.33673954  -0.41162906  -0.67687229
H    -3.12525430   0.31750203   0.66147062
O    -0.14088148  -0.99597333   0.24230339
H     0.01368851  -0.06203755   0.22509780
H     0.04106742  -1.20914117  -0.65298956
6
# step=   211 energy=-149.92740246
O    -3.54227005   0.42009044  -0.20470910
H    -3.34648556  -0.41280183  -0.69446760
H    -3.12673023   0.31980076   0.66481457
O    -0.13935748  -0.99754874   0.24442270
H     0.01554472  -0.05843623   0.21653124
H     0.04725203  -1.19740778  -0.66350451
6
# step=   212 energy=-149.92896428
O    -3.54376007   0.42079697  -0.20496648
H    -3.35534158  -0.41454731  -0.71051168
H    -3.12640286   0.32006372   0.67017235
O    -0.13796718  -0.99935295   0.24689579
H     0.01824908  -0.04871136   0.20873560
H     0.05467185  -1.18808728  -0.68047398
6
# step=   213 energy=-149.92949591
O    -3.54538853   0.42161553  -0.20544165
H    -3.36337486  -0.41590266  -0.72407067
H    -3.12458541   0.31808233   0.67657128
O    -0.13664733  -1.00128997   0.24951549
H     0.02140271  -0.03471616   0.20208713
H     0.06267178  -1.18085040  -0.70097780
6
# step=   214 energy=-149.92837320
O    -3.54712204   0.42250426  -0.20610427
H    -3.37063984  -0.41611668  -0.73442510
H    -3.12174845   0.31377356   0.68281009
O    -0.13532488  -1.00323400   0.25205789
H     0.02454159  -0.01889930   0.19690396
H     0.07053780  -1.17525970  -0.72175552
6
# step=   215 energy=-149.92608169
O    -3.54892716   0.42343376  -0.20690609
H    -3.37717043  -0.41473389  -0.74114094
H    -3.11842321   0.30716259   0.68766795
O    -0.13393021  -1.00505466   0.25432321
H     0.02722187  -0.00376137   0.19344701
H     0.07763006  -1.17091077  -0.73985659
6
# step=   216 energy=-149.92374566
O    -3.55077670   0.42439073  -0.20779078
H    -3.38298268  -0.41162170  -0.74409698
H    -3.11511479   0.29835615   0.69008220
O    -0.13240448  -1.00663826   0.25615862
H     0.02907864   0.00854353   0.19191638
H     0.08345814  -1.16749545  -0.75299570
6
# step=   217 energy=-149.92247622
O    -3.55265508   0.42538002  -0.20870265
H    -3.38808239  -0.40695754  -0.74347563
H    -3.11223757   0.28750605   0.68926536
O    -0.13070103  -1.00790043   0.25746565
H     0.02985203   0.01641545   0.19245371
H     0.08770617  -1.16481531  -0.75966004
6
# step=   218 energy=-149.92291164
O    -3.55455611   0.42642206  -0.20959025
H    -3.39245737  -0.40120726  -0.73973101
H    -3.11008470   0.27480542   0.68476432
O    -0.12878879  -1.00878664   0.25819424
H     0.02938602   0.01884171   0.19515211
H     0.09021504  -1.16278456  -0.75905797
6
# step=   219 energy=-149.92499441
O    -3.55646731   0.42754176  -0.21040331
H    -3.39605416  -0.39513235  -0.73360439
H    -3.10881808   0.26058943   0.67655767
O    -0.12666953  -1.00926798   0.25833792
H     0.02763598   0.01542093   0.20002555
H     0.09096621  -1.16143633  -0.75114124
6
# step=   220 energy=-149.92796228
O    -3.55837858   0.42876756  -0.21110343
H    -3.39883010  -0.38967674  -0.72608501
H    -3.10842518   0.24528164   0.66511923
O    -0.12437271  -1.00935402   0.25794854
H     0.02468708   0.00649787   0.20698440
H     0.09012944  -1.16089729  -0.73674915
6
# step=   221 energy=-149.93061642
O    -3.56029300   0.43013049  -0.21167494
H    -3.40080100  -0.38577028  -0.71825431
H    -3.10870841   0.22927512   0.65134087
O    -0.12194206  -1.00909658   0.25713802
H     0.02073871  -0.00684981   0.21586939
H     0.08807216  -1.16137550  -0.71757395
6
# step=   222 energy=-149.93179849
O    -3.56222294   0.43165440  -0.21212738
H    -3.40205948  -0.38414927  -0.71113692
H    -3.10931575   0.21290507   0.63642829
O    -0.11943379  -1.00858478   0.25607115
H     0.01608435  -0.02288813   0.22647409
H     0.08533904  -1.16315955  -0.69607438
6
# step=   223 energy=-149.93098938
O    -3.56418371   0.43334543  -0.21249371
H    -3.40278947  -0.38519397  -0.70557066
H    -3.10979857   0.19644647   0.62175613
O    -0.11691436  -1.00793781   0.25495255
H     0.01108697  -0.03935442   0.23855976
H     0.08261069  -1.16659803  -0.67529548
6
# step=   224 energy=-149.92875947
O    -3.56618725   0.43518462  -0.21282339
H    -3.40326976  -0.38882491  -0.70211401
H    -3.10969875   0.18012510   0.60866954
O    -0.11445328  -1.00729287   0.25400087
H     0.00613977  -0.05370864   0.25186847
H     0.08061774  -1.17203747  -0.65847236
6
# step=   225 energy=-149.92658882
O    -3.56823657   0.43712596  -0.21317043
H    -3.40385810  -0.39449988  -0.70101470
H    -3.10865485   0.16414689   0.59826050
O    -0.11211096  -1.00678684   0.25340807
H     0.00161092  -0.06354616   0.26612734
H     0.08000294  -1.17970465  -0.64838403
6
# step=   226 energy=-149.92586195
O    -3.57032115   0.43909925  -0.21357941
H    -3.40495644  -0.40131181  -0.70224284
H    -3.10650062   0.14874686   0.59118145
O    -0.10992591  -1.00653366   0.25329477
H    -0.00221497  -0.06711377   0.28102857
H     0.08116543  -1.18954868  -0.64662156
6
# step=   227 energy=-149.92675274
O    -3.57241229   0.44101438  -0.21407382
H    -3.40696405  -0.40813990  -0.70556115
H    -3.10332776   0.13425490   0.58755619
O    -0.10790944  -1.00660343   0.25368183
H    -0.00517468  -0.06377014   0.29616958
H     0.08415465  -1.20109791  -0.65310134
6
# step=   228 energy=-149.92813045
O    -3.57446391   0.44277043  -0.21465088
H    -3.41022692  -0.41382407  -0.71059965
H    -3.09948906   0.12111492   0.58698738
O    -0.10604718  -1.00700916   0.25449334
H    -0.00723665  -0.05420960   0.31101207
H     0.08867061  -1.21343956  -0.66608776
6
# step=   229 energy=-149.92860687
O    -3.57642338   0.44427229  -0.21528509
H    -3.41500151  -0.41734594  -0.71693988
H    -3.09552607   0.10981846   0.58866828
O    -0.10430378  -1.00770907   0.25559207
H    -0.00848115  -0.04027164   0.32492825
H     0.09418391  -1.22539035  -0.68277687
6
# step=   230 energy=-149.92760982
O    -3.57824192   0.44544399  -0.21593670
H    -3.42143913  -0.41795429  -0.72419248
H    -3.09205677   0.10082787   0.59157778
O    -0.10263372  -1.00862460   0.25682541
H    -0.00905170  -0.02442352   0.33727751
H     0.10009833  -1.23573811  -0.70009082
6
# step=   231 energy=-149.92561550
O    -3.57988189   0.44623673  -0.21656076
H    -3.42958643  -0.41522685  -0.73205299
H    -3.08966647   0.09451111   0.59467755
O    -0.10099158  -1.00966316   0.25805890
H    -0.00910621  -0.00920439   0.34748268
H     0.10587525  -1.24343491  -0.71528616
6
# step=   232 energy=-149.92368062
O    -3.58132191   0.44663316  -0.21711458
H    -3.43939996  -0.40908458  -0.74034035
H    -3.08882417   0.09109160   0.59706456
O    -0.09933750  -1.01073726   0.25919234
H    -0.00878489   0.00318134   0.35508969
H     0.11110005  -1.24770069  -0.72626672
6
# step=   233 energy=-149.92282086
O    -3.58255900   0.44664779  -0.21756262
H    -3.45076814  -0.39977082  -0.74901806
H    -3.08983272   0.09062184   0.59806680
O    -0.09763892  -1.01177628   0.26016344
H    -0.00819461   0.01107088   0.35979362
H     0.11550272  -1.24804402  -0.73166418
6
# step=   234 energy=-149.92357846
O    -3.58360499   0.44632530  -0.21787809
H    -3.46349621  -0.38784165  -0.75817015
H    -3.09279968   0.09297237   0.59729232
O    -0.09587630  -1.01272851   0.26094311
H    -0.00740640   0.01338635   0.36142795
H     0.11894344  -1.24424373  -0.73079910
6
# step=   235 energy=-149.92581799
O    -3.58448233   0.44574147  -0.21804532
H    -3.47725353  -0.37418578  -0.76793567
H    -3.09759233   0.09778986   0.59467718
O    -0.09405234  -1.01355945   0.26153169
H    -0.00646147   0.00969095   0.35998355
H     0.12140264  -1.23638543  -0.72371567
6
# step=   236 energy=-149.92874891
O    -3.58522933   0.44499797  -0.21806640
H    -3.49164762  -0.35988551  -0.77849978
H    -3.10382904   0.10448456   0.59051474
O    -0.09218480  -1.01425966   0.26196493
H    -0.00537075   0.00029498   0.35565869
H     0.12301394  -1.22488493  -0.71125874
6
# step=   237 energy=-149.93119562
O    -3.58589956   0.44420832  -0.21796489
H    -3.50630835  -0.34601129  -0.79005346
H    -3.11092418   0.11228243   0.58541870
O    -0.09029983  -1.01484950   0.26231560
H    -0.00411279  -0.01374924   0.34885255
H     0.12407603  -1.21044103  -0.69503781
6
# step=   238 energy=-149.93206450
O    -3.58655581   0.44348355  -0.21778629
H    -3.52091356  -0.33345870  -0.80269903
H    -3.11815044   0.12028976   0.58024067
O    -0.08843165  -1.01537920   0.26268929
H    -0.00263590  -0.03069486   0.34014194
H     0.12503987  -1.19398372  -0.67734020
6
# step=   239 energy=-149.93092271
O    -3.58726289   0.44291909  -0.21759491
H    -3.53519598  -0.32282423  -0.81635730
H    -3.12472797   0.12757241   0.57593559
O    -0.08662099  -1.01592691   0.26321371
H    -0.00086385  -0.04820318   0.33024783
H     0.12647046  -1.17659777  -0.66093558
6
# step=   240 energy=-149.92840902
O    -3.58807998   0.44258487  -0.21746526
H    -3.54894128  -0.31434388  -0.83071458
H    -3.12994322   0.13325225   0.57337311
O    -0.08490942  -1.01659153   0.26401752
H     0.00129138  -0.06358224   0.31997494
H     0.12896407  -1.15939745  -0.64867825
6
# step=   241 energy=-149.92601947
O    -3.58905336   0.44252046  -0.21746827
H    -3.56198043  -0.30791340  -0.84523285
H    -3.13327793   0.13660626   0.57312585
O    -0.08332931  -1.01747600   0.26519832
H     0.00390557  -0.07421746   0.31012139
H     0.13301596  -1.14336472  -0.64290376
6
# step=   242 energy=-149.92512603
O    -3.59021065   0.44273608  -0.21765644
H    -3.57417600  -0.30318099  -0.85921458
H    -3.13450992   0.13714148   0.57529758
O    -0.08189257  -1.01865985   0.26678900
H     0.00700608  -0.07814487   0.30138346
H     0.13887198  -1.12921327  -0.64479605
6
# step=   243 energy=-149.92592517
O    -3.59155627   0.44321747  -0.21805246
H    -3.58539081  -0.29967823  -0.87187787
H    -3.13375286   0.13463089   0.57944735
O    -0.08058534  -1.02016660   0.26873564
H     0.01052897  -0.07458660   0.29430213
H     0.14642082  -1.11735801  -0.65401110
6
# step=   244 energy=-149.92733929
O    -3.59307018   0.44393152  -0.21864448
H    -3.59547695  -0.29693517  -0.88245595
H    -3.13143392   0.12912373   0.58463679
O    -0.07936942  -1.02194213   0.27090129
H     0.01429535  -0.06423843   0.28924355
H     0.15518951  -1.10795824  -0.66874198
6
# step=   245 energy=-149.92799364
O    -3.59471591   0.44483489  -0.21939113
H    -3.60431656  -0.29455798  -0.89033816
H    -3.12820057   0.12090597   0.58961765
O    -0.07818779  -1.02386440   0.27310234
H     0.01803874  -0.04908348   0.28639395
H     0.16447799  -1.10097025  -0.68626141
6
# step=   246 energy=-149.92726548
O    -3.59645042   0.44588327  -0.22023302
H    -3.61184712  -0.29228119  -0.89515567
H    -3.12478494   0.11041725   0.59307850
O    -0.07697612  -1.02577516   0.27515210
H     0.02146060  -0.03181303   0.28579600
H     0.17353653  -1.09623075  -0.70363280
6
# step=   247 energy=-149.92555684
O    -3.59823186   0.44703825  -0.22110457
H    -3.61806786  -0.28999120  -0.89680898
H    -3.12187996   0.09816622   0.59385912
O    -0.07567417  -1.02751464   0.27689181
H     0.02428411  -0.01520088   0.28739580
H     0.18170054  -1.09352989  -0.71825051
6
# step=   248 energy=-149.92387098
O    -3.60002540   0.44827176  -0.22194371
H    -3.62304159  -0.28772435  -0.89546159
H    -3.12005007   0.08465793   0.59109660
O    -0.07423238  -1.02894710   0.27820634
H     0.02629118  -0.00165240   0.29108030
H     0.18846545  -1.09265369  -0.72812598
6
# step=   249 energy=-149.92320232
O    -3.60180639   0.44956806  -0.22269842
H    -3.62689107  -0.28564780  -0.89151047
H    -3.11967927   0.07034248   0.58430217
O    -0.07261471  -1.02997341   0.27902772
H     0.02733748   0.00701883   0.29670419
H     0.19351101  -1.09340590  -0.73197342
6
# step=   250 energy=-149.92408739
O    -3.60355709   0.45092010  -0.22332915
H    -3.62978538  -0.28403073  -0.88555686
H    -3.12094391   0.05561869   0.57341532
O    -0.07080376  -1.03053235   0.27933193
H     0.02735226   0.00964368   0.30409055
H     0.19669108  -1.09561366  -0.72920212
6
# step=   251 energy=-149.92638353
O    -3.60526234   0.45232343  -0.22381171
H    -3.63193425  -0.28319386  -0.87838450
H    -3.12378252   0.04085362   0.55887621
O    -0.06880812  -1.03060340   0.27914066
H     0.02634425   0.00575498   0.31300643
H     0.19804035  -1.09911324  -0.71997011
6
# step=   252 energy=-149.92928845
O    -3.60691679   0.45377785  -0.22414417
H    -3.63359725  -0.28342472  -0.87086928
H    -3.12788850   0.02630298   0.54159209
O    -0.06665760  -1.03021373   0.27852647
H     0.02440826  -0.00432999   0.32318990
H     0.19780816  -1.10375209  -0.70523814
6
# step=   253 energy=-149.93161769
O    -3.60852846   0.45528686  -0.22434926
H    -3.63507435  -0.28489400  -0.86385963
H    -3.13274919   0.01205868   0.52281462
O    -0.06439737  -1.02943773   0.27760960
H     0.02171685  -0.01952007   0.33439422
H     0.19646047  -1.10940869  -0.68672328
6
# step=   254 energy=-149.93229468
O    -3.61011539   0.45685234  -0.22447093
H    -3.63668559  -0.28758976  -0.85808262
H    -3.13771555  -0.00193185   0.50399331
O    -0.06208593  -1.02839296   0.27654973
H     0.01850816  -0.03800125   0.34641345
H     0.19465466  -1.11600503  -0.66679371
6
# step=   255 energy=-149.93093771
O    -3.61169986   0.45846812  -0.22456641
H    -3.63874976  -0.29128114  -0.85407766
H    -3.14210355  -0.01580412   0.48658828
O    -0.05979118  -1.02723319   0.27553053
H     0.01506959  -0.05734658   0.35910033
H     0.19318088  -1.12350505  -0.64824550
6
# step=   256 energy=-149.92823381
O    -3.61330155   0.46011460  -0.22469467
H    -3.64156383  -0.29552454  -0.85216279
H    -3.14532019  -0.02968332   0.47185232
O    -0.05758210  -1.02613468   0.27473321
H     0.01171221  -0.07476258   0.37237098
H     0.19285070  -1.13188613  -0.63388574
6
# step=   257 energy=-149.92567684
O    -3.61493148   0.46175534  -0.22490393
H    -3.64538531  -0.29971278  -0.85243684
H    -3.14698640  -0.04357985   0.46063051
O    -0.05551599  -1.02527319   0.27430148
H     0.00873501  -0.08752705   0.38617928
H     0.19433669  -1.14107276  -0.62594241
6
# step=   258 energy=-149.92460566
O    -3.61658782   0.46333662  -0.22522234
H    -3.65041944  -0.30315139  -0.85481286
H    -3.14701621  -0.05730514   0.45324413
O    -0.05362604  -1.02479364   0.27431013
H     0.00638745  -0.09356807   0.40044378
H     0.19801056  -1.15084109  -0.62548833
6
# step=   259 energy=-149.92523155
O    -3.61825224   0.46478792  -0.22565392
H    -3.65680162  -0.30513620  -0.85906274
H    -3.14562803  -0.07041903   0.44950040
O    -0.05191787  -1.02478156   0.27475274
H     0.00484618  -0.09199955   0.41491932
H     0.20384564  -1.16072504  -0.63214672
6
# step=   260 energy=-149.92656489
O    -3.61988997   0.46602761  -0.22617967
H    -3.66457510  -0.30503691  -0.86485374
H    -3.14329663  -0.08225469   0.44877995
O    -0.05037375  -1.02524439   0.27555278
H     0.00420610  -0.08341662   0.42909587
H     0.21142559  -1.17000123  -0.64420059
6
# step=   261 energy=-149.92732386
O    -3.62146043   0.46697889  -0.22676483
H    -3.67370203  -0.30238343  -0.87180600
H    -3.14064841  -0.09206814   0.45017487
O    -0.04895688  -1.02611491   0.27659469
H     0.00448340  -0.06973006   0.44225488
H     0.22008445  -1.17781999  -0.65911022
6
# step=   262 energy=-149.92690778
O    -3.62292721   0.46758334  -0.22736813
H    -3.68408831  -0.29691393  -0.87955678
H    -3.13833413  -0.09919132   0.45267330
O    -0.04762064  -1.02727795   0.27775820
H     0.00563804  -0.05358696   0.45360477
H     0.22909043  -1.18337200  -0.67417108
6
# step=   263 energy=-149.92565105
O    -3.62426367   0.46780841  -0.22794912
H    -3.69560365  -0.28858839  -0.88780684
H    -3.13692418  -0.10313880   0.45532164
O    -0.04631839  -1.02860242   0.27894026
H     0.00759899  -0.03773802   0.46241769
H     0.23778221  -1.18600860  -0.68699939
6
# step=   264 energy=-149.92443235
O    -3.62545600   0.46765094  -0.22847338
H    -3.70809966  -0.27757853  -0.89634821
H    -3.13683865  -0.10367406   0.45733637
O    -0.04500939  -1.02996590   0.28006423
H     0.01028216  -0.02458545   0.46812987
H     0.24564291  -1.18530044  -0.69578027
6
# step=   265 energy=-149.92411294
O    -3.62650396   0.46713746  -0.22891574
H    -3.72141864  -0.26424564  -0.90506942
H    -3.13830728  -0.10084240   0.45817042
O    -0.04366217  -1.03126774   0.28108098
H     0.01359973  -0.01595771   0.47038848
H     0.25232473  -1.18104772  -0.69934210
6
# step=   266 energy=-149.92512467
O    -3.62741939   0.46632386  -0.22926232
H    -3.73537643  -0.24912910  -0.91392927
H    -3.14134406  -0.09499333   0.45755098
O    -0.04225830  -1.03243252   0.28196631
H     0.01745846  -0.01303573   0.46906693
H     0.25764553  -1.17328123  -0.69716114
6
# step=   267 energy=-149.92728366
O    -3.62822577   0.46529418  -0.22951340
H    -3.74974951  -0.23291811  -0.92292043
H    -3.14572863  -0.08679915   0.45550689
O    -0.04079508  -1.03341232   0.28272011
H     0.02175578  -0.01629485   0.46428977
H     0.26159638  -1.16227561  -0.68939226
6
# step=   268 energy=-149.92983438
O    -3.62895962   0.46415330  -0.22968663
H    -3.76430677  -0.21635309  -0.93204804
H    -3.15102010  -0.07721964   0.45236744
O    -0.03928345  -1.03419243   0.28336876
H     0.02639004  -0.02544830   0.45644572
H     0.26436644  -1.14853089  -0.67688785
6
# step=   269 energy=-149.93171532
O    -3.62966882   0.46301581  -0.22981733
H    -3.77883232  -0.20012362  -0.94129634
H    -3.15660956  -0.06741363   0.44870993
O    -0.03774611  -1.03479529   0.28396491
H     0.03127295  -0.03944117   0.44617136
H     0.26634838  -1.13272783  -0.66115485
6
# step=   270 energy=-149.93200377
O    -3.63040756   0.46199462  -0.22995453
H    -3.79312419  -0.18480449  -0.95058780
H    -3.16180419  -0.05862038   0.44525434
O    -0.03621649  -1.03528174   0.28458280
H     0.03633717  -0.05647854   0.43432355
H     0.26811639  -1.11568054  -0.64425097
6
# step=   271 energy=-149.93042696
O    -3.63122909   0.46118971  -0.23015252
H    -3.80698856  -0.17082412  -0.95975802
H    -3.16594343  -0.05201250   0.44270587
O    -0.03473569  -1.03574858   0.28530790
H     0.04154133  -0.07412386   0.42193137
H     0.27036761  -1.09827556  -0.62857400
6
# step=   272 energy=-149.92767036
O    -3.63217745   0.46067802  -0.23045895
H    -3.82023981  -0.15846107  -0.96855824
H    -3.16853312  -0.04853646   0.44156639
O    -0.03334556  -1.03631788   0.28621977
H     0.04686955  -0.08955224   0.41010780
H     0.27381213  -1.08139053  -0.61649762
6
# step=   273 energy=-149.92513138
O    -3.63328024   0.46050638  -0.23090289
H    -3.83270869  -0.14786236  -0.97668430
H    -3.16936173  -0.04878000   0.44196723
O    -0.03207759  -1.03711330   0.28737015
H     0.05231840  -0.10002047   0.39991696
H     0.27901782  -1.06580440  -0.60988468
6
# step=   274 energy=-149.92406173
O    -3.63454483   0.46068994  -0.23148720
H    -3.84425128  -0.13907810  -0.98381735
H    -3.16855552  -0.05291067   0.44358680
O    -0.03094091  -1.03822508   0.28876375
H     0.05786493  -0.10349433   0.39222905
H     0.28625414  -1.05213264  -0.60963202
6
# step=   275 energy=-149.92467736
O    -3.63595635   0.46121511  -0.23218681
H    -3.85473307  -0.13211468  -0.98964952
H    -3.16655600  -0.06068737   0.44568220
O    -0.02991680  -1.03967286   0.29034764
H     0.06341386  -0.09922009   0.38762552
H     0.29538604  -1.04083172  -0.61544011
6
# step=   276 energy=-149.92605352
O    -3.63747835   0.46204323  -0.23295280
H    -3.86401891  -0.12696459  -0.99391220
H    -3.16403762  -0.07150908   0.44722217
O    -0.02896090  -1.04138469   0.29201554
H     0.06876030  -0.08802024   0.38635345
H     0.30586467  -1.03222061  -0.62587597
6
# step=   277 energy=-149.92695192
O    -3.63906368   0.46311870  -0.23372476
H    -3.87202163  -0.12358408  -0.99643060
H    -3.16177086  -0.08454591   0.44709891
O    -0.02800922  -1.04321396   0.29363470
H     0.07362342  -0.07207225   0.38832782
H     0.31687605  -1.02645157  -0.63876384
6
# step=   278 energy=-149.92676237
O    -3.64066578   0.46437969  -0.23444407
H    -3.87872806  -0.12188567  -0.99714695
H    -3.16047991  -0.09890276   0.44433229
O    -0.02699057  -1.04498029   0.29507593
H     0.07770814  -0.05425877   0.39322100
H     0.32754204  -1.02352109  -0.65172470
6
# step=   279 energy=-149.92577527
O    -3.64224534   0.46576619  -0.23506299
H    -3.88419753  -0.12174230  -0.99611667
H    -3.16074003  -0.11374364   0.43821067
O    -0.02583937  -1.04650908   0.29623360
H     0.08075922  -0.03749785   0.40057301
H     0.33707417  -1.02330790  -0.66260538
6
# step=   280 energy=-149.92481642
O    -3.64377400   0.46722519  -0.23554993
H    -3.88855455  -0.12298930  -0.99349608
H    -3.16291743  -0.12837456   0.42836658
O    -0.02450401  -1.04765781   0.29703562
H     0.08259602  -0.02428486   0.40987749
H     0.34486462  -1.02560732  -0.66972763
6
# step=   281 energy=-149.92469627
O    -3.64523537   0.46871303  -0.23589160
H    -3.89197904  -0.12542270  -0.98952913
H    -3.16714003  -0.14228839   0.41480911
O    -0.02295155  -1.04832790   0.29744607
H     0.08312594  -0.01647388   0.42063211
H     0.35052430  -1.03015513  -0.67199224
6
# step=   282 energy=-149.92579992
O    -3.64662356   0.47019490  -0.23609325
H    -3.89469544  -0.12879113  -0.98454042
H    -3.17328082  -0.15517773   0.39794538
O    -0.02117172  -1.04846801   0.29746510
H     0.08234724  -0.01520519   0.43235342
H     0.35389397  -1.03663411  -0.66891659
6
# step=   283 energy=-149.92791218
O    -3.64794248   0.47164506  -0.23617819
H    -3.89696686  -0.13278821  -0.97892645
H    -3.18095575  -0.16695025   0.37857361
O    -0.01917949  -1.04807689   0.29712979
H     0.08035270  -0.02085608   0.44459006
H     0.35506184  -1.04467420  -0.66067144
6
# step=   284 energy=-149.93028197
O    -3.64920680   0.47304920  -0.23618553
H    -3.89908983  -0.13705974  -0.97312919
H    -3.18956301  -0.17774731   0.35779632
O    -0.01701283  -1.04720487   0.29651353
H     0.07732756  -0.03300713   0.45696568
H     0.35437982  -1.05387293  -0.64808932
6
# step=   285 energy=-149.93189987
O    -3.65044017   0.47440390  -0.23616478
H    -3.90138149  -0.14121912  -0.96760434
H    -3.19835909  -0.18791221   0.33688528
O    -0.01472930  -1.04595206   0.29572112
H     0.07353908  -0.05045032   0.46922384
H     0.35245349  -1.06382581  -0.63261498
6
# step=   286 energy=-149.93192851
O    -3.65167023   0.47571202  -0.23616809
H    -3.90416158  -0.14486417  -0.96279248
H    -3.20655911  -0.19789767   0.31712762
O    -0.01240242  -1.04446411   0.29487971
H     0.06932213  -0.07122967   0.48126184
H     0.35010145  -1.07415304  -0.61619154
6
# step=   287 energy=-149.93016494
O    -3.65292240   0.47697529  -0.23624168
H    -3.90773245  -0.14759595  -0.95909004
H    -3.21345475  -0.20813014   0.29965958
O    -0.01011528  -1.04292391   0.29412388
H     0.06505831  -0.09275494   0.49315041
H     0.34827222  -1.08451893  -0.60104374
6
# step=   288 energy=-149.92729780
O    -3.65421400   0.47818639  -0.23641813
H    -3.91235916  -0.14903824  -0.95681943
H    -3.21853018  -0.21886238   0.28531241
O    -0.00794987  -1.04153471   0.29357492
H     0.06114437  -0.11206903   0.50511861
H     0.34790750  -1.09463506  -0.58932878
6
# step=   289 energy=-149.92466920
O    -3.65555092   0.47932324  -0.23671197
H    -3.91825353  -0.14885394  -0.95620288
H    -3.22154448  -0.23006238   0.27450926
O    -0.00597282  -1.04049200   0.29331859
H     0.05795095  -0.12632457   0.51747488
H     0.34976742  -1.10423685  -0.58269577
6
# step=   290 energy=-149.92349618
O    -3.65692742   0.48034744  -0.23711981
H    -3.92556462  -0.14675394  -0.95734728
H    -3.22255280  -0.24137765   0.26724770
O    -0.00422239  -1.03994797   0.29339086
H     0.05578276  -0.13340389   0.53045190
H     0.35427224  -1.11303395  -0.58189779
6
# step=   291 energy=-149.92404728
O    -3.65832561   0.48120526  -0.23762336
H    -3.93435699  -0.14250649  -0.96023791
H    -3.22186462  -0.25215886   0.26317729
O    -0.00270618  -1.03998096   0.29377846
H     0.05485792  -0.13245997   0.54399055
H     0.36141286  -1.12064139  -0.58662019
6
# step=   292 energy=-149.92550292
O    -3.65971514   0.48183345  -0.23819321
H    -3.94457130  -0.13597038  -0.96472472
H    -3.21997682  -0.26154561   0.26170033
O    -0.00140692  -1.04057803   0.29443005
H     0.05529749  -0.12419376   0.55757736
H     0.37074413  -1.12655493  -0.59555100
6
# step=   293 energy=-149.92668436
O    -3.66106352   0.48217438  -0.23879639
H    -3.95604713  -0.12710897  -0.97053647
H    -3.21748245  -0.26867194   0.26206087
O    -0.00028470  -1.04164292   0.29527482
H     0.05712138  -0.11065584   0.57033518
H     0.38152024  -1.13024469  -0.60672321
6
# step=   294 energy=-149.92693879
O    -3.66234497   0.48218770  -0.23940365
H    -3.96856503  -0.11597862  -0.97732398
H    -3.21496573  -0.27284582   0.26346500
O     0.00071435  -1.04303077   0.29624077
H     0.06026922  -0.09460615   0.58124874
H     0.39289185  -1.13125817  -0.61799233
6
# step=   295 energy=-149.92642610
O    -3.66354392   0.48185634  -0.23999349
H    -3.98187041  -0.10272132  -0.98470044
H    -3.21292130  -0.27365353   0.26518581
O     0.00164703  -1.04458519   0.29726457
H     0.06462561  -0.07885499   0.58937982
H     0.40405695  -1.12928660  -0.62741105
6
# step=   296 energy=-149.92581240
O    -3.66465639   0.48118958  -0.24055409
H    -3.99569098  -0.08756027  -0.99227466
H    -3.21170200  -0.27101546   0.26663401
O     0.00256530  -1.04616370   0.29829552
H     0.07003890  -0.06581923   0.59401546
H     0.41435204  -1.12419709  -0.63344634
6
# step=   297 energy=-149.92578295
O    -3.66568992   0.48022411  -0.24108380
H    -4.00974757  -0.07079939  -0.99967542
H    -3.21148863  -0.26520891   0.26740064
O     0.00351165  -1.04765056   0.29929651
H     0.07633313  -0.05730781   0.59473827
H     0.42329590  -1.11603865  -0.63507554
6
# step=   298 energy=-149.92667884
O    -3.66666253   0.47902405  -0.24159072
H    -4.02375755  -0.05282930  -1.00656761
H    -3.21227536  -0.25686942   0.26727979
O     0.00451582  -1.04896115   0.30024400
H     0.08331322  -0.05444635   0.59144972
H     0.43060751  -1.10503944  -0.63182306
6
# step=   299 energy=-149.92834566
O    -3.66760131   0.47767886  -0.24209154
H    -4.03744500  -0.03412325  -1.01266991
H    -3.21387085  -0.24696270   0.26627355
O     0.00559272  -1.05004462   0.30112840
H     0.09077145  -0.05764087   0.58438028
H     0.43622233  -1.09159898  -0.62378234
6
# step=   300 energy=-149.93018382
O    -3.66854053   0.47629662  -0.24260943
H    -4.05056623  -0.01520787  -1.01777728
H    -3.21592532  -0.23670244   0.26456955
O     0.00674171  -1.05088759   0.30195498
H     0.09850325  -0.06654948   0.57408710
H     0.44030987  -1.07626261  -0.61161677
6
# step=   301 energy=-149.93136862
O    -3.66951774   0.47499376  -0.24316983
H    -4.06293309   0.00337144  -1.02177799
H    -3.21799195  -0.22741456   0.26247990
O     0.00794674  -1.05151725   0.30274325
H     0.10632651  -0.08007475   0.56143516
H     0.44327493  -1.05968412  -0.59652042
6
# step=   302 energy=-149.93119664
O    -3.67056764   0.47388278  -0.24379410
H    -4.07442537   0.02107623  -1.02466044
H    -3.21961951  -0.22036512   0.26034255
O     0.00917740  -1.05200216   0.30352373
H     0.11409850  -0.09639230   0.54756198
H     0.44573067  -1.04258655  -0.58012675
6
# step=   303 energy=-149.92947654
O    -3.67171499   0.47305946  -0.24449218
H    -4.08499542   0.03739585  -1.02651093
H    -3.22046291  -0.21657559   0.25840057
O     0.01039241  -1.05244778   0.30433170
H     0.12172780  -0.11306624   0.53380945
H     0.44843234  -1.02571877  -0.56434009
6
# step=   304 energy=-149.92678111
O    -3.67296878   0.47259177  -0.24525661
H    -4.09466660   0.05186888  -1.02750052
H    -3.22038354  -0.21666580   0.25669127
O     0.01154722  -1.05298199   0.30519844
H     0.12917380  -0.12733165   0.52159990
H     0.45216169  -1.00980597  -0.55106851
6
# step=   305 energy=-149.92429128
O    -3.67432009   0.47251355  -0.24606086
H    -4.10352495   0.06410728  -1.02785841
H    -3.21950490  -0.22077352   0.25498483
O     0.01260608  -1.05372750   0.30614180
H     0.13642343  -0.13659010   0.51225167
H     0.45757103  -0.99549840  -0.54188183
6
# step=   306 energy=-149.92313240
O    -3.67574469   0.47282495  -0.24686290
H    -4.11170012   0.07381610  -1.02783200
H    -3.21820133  -0.22857912   0.25279728
O     0.01355565  -1.05476551   0.30715903
H     0.14343990  -0.13903098   0.50677716
H     0.46502658  -0.98333496  -0.53768912
6
# step=   307 energy=-149.92361014
O    -3.67720579   0.47349748  -0.24761137
H    -4.11931799   0.08078586  -1.02763984
H    -3.21703076  -0.23939433   0.24947644
O     0.01441294  -1.05610174   0.30822206
H     0.15008651  -0.13414550   0.50574271
H     0.47448822  -0.97375578  -0.53855904
6
# step=   308 energy=-149.92503091
O    -3.67865619   0.47447716  -0.24825315
H    -4.12644558   0.08490060  -1.02742749
H    -3.21663350  -0.25224992   0.24434200
O     0.01522406  -1.05764982   0.30927704
H     0.15607685  -0.12295046   0.50919423
H     0.48545667  -0.96711563  -0.54369964
6
# step=   309 energy=-149.92632384
O    -3.68005159   0.47569266  -0.24874701
H    -4.13309853   0.08620684  -1.02723237
H    -3.21760662  -0.26607184   0.23682019
O     0.01605860  -1.05925369   0.31025742
H     0.16103749  -0.10771968   0.51667848
H     0.49709592  -0.96361675  -0.55164154
6
# step=   310 energy=-149.92684621
O    -3.68136162   0.47706700  -0.24907274
H    -4.13925305   0.08493244  -1.02697211
H    -3.22040318  -0.27986781   0.22653411
O     0.01699593  -1.06073190   0.31109918
H     0.16460441  -0.09131649   0.52740937
H     0.50844334  -0.96328775  -0.56060298
6
# step=   311 energy=-149.92667370
O    -3.68257304   0.47852587  -0.24923310
H    -4.14485178   0.08146468  -1.02646339
H    -3.22527457  -0.29283854   0.21335429
O     0.01810961  -1.06191622   0.31175075
H     0.16649483  -0.07655235   0.54045570
H     0.51858697  -0.96600606  -0.56883763
6
# step=   312 energy=-149.92635259
O    -3.68368915   0.48000312  -0.24925161
H    -4.14982223   0.07631777  -1.02546568
H    -3.23224555  -0.30443729   0.19741463
O     0.01945619  -1.06267591   0.31217897
H     0.16654757  -0.06576935   0.55488111
H     0.52678803  -0.97152434  -0.57487638
6
# step=   313 energy=-149.92647160
O    -3.68472709   0.48144439  -0.24916792
H    -4.15410539   0.07009625  -1.02373921
H    -3.24111119  -0.31439514   0.17910524
O     0.02106898  -1.06292846   0.31237175
H     0.16473605  -0.06064235   0.56982771
H     0.53255074  -0.97949158  -0.57766356
6
# step=   314 energy=-149.92733120
O    -3.68571381   0.48280919  -0.24903192
H    -4.15768777   0.06345675  -1.02110644
H    -3.25144905  -0.32272070   0.15905017
O     0.02295459  -1.06264269   0.31233886
H     0.16116714  -0.06211091   0.58455994
H     0.53565769  -0.98946699  -0.57662340
6
# step=   315 energy=-149.92879949
O    -3.68668173   0.48407206  -0.24889725
H    -4.16063200   0.05706518  -1.01750570
H    -3.26265216  -0.32967772   0.13806035
O     0.02509174  -1.06183931   0.31211159
H     0.15607509  -0.07035557   0.59849877
H     0.53618953  -1.00093383  -0.57169149
6
# step=   316 energy=-149.93034787
O    -3.68766427   0.48522244  -0.24881449
H    -4.16309892   0.05154870  -1.01302550
H    -3.27399165  -0.33573105   0.11705164
O     0.02743247  -1.06059004   0.31174061
H     0.14980950  -0.08478944   0.61126468
H     0.53453036  -1.01332457  -0.56331730
6
# step=   317 energy=-149.93123979
O    -3.68869108   0.48626149  -0.24882476
H    -4.16535348   0.04745209  -1.00791323
H    -3.28470230  -0.34144989   0.09694387
O     0.02990548  -1.05901487   0.31129139
H     0.14281653  -0.10407090   0.62272297
H     0.53134939  -1.02605521  -0.55242822
6
# step=   318 energy=-149.93084232
O    -3.68978341   0.48719600  -0.24895490
H    -4.16775192   0.04520661  -1.00255736
H    -3.29407663  -0.34737599   0.07856152
O     0.03242117  -1.05727671   0.31083693
H     0.13561334  -0.12615517   0.63301863
H     0.52755161  -1.03856197  -0.54034388
6
# step=   319 energy=-149.92899302
O    -3.69095066   0.48803070  -0.24921493
H    -4.17071182   0.04511407  -0.99744453
H    -3.30155357  -0.35388501   0.06254892
O     0.03487976  -1.05557052   0.31044801
H     0.12875217  -0.14843454   0.64258059
H     0.52418812  -1.05033523  -0.52862289
6
# step=   320 energy=-149.92625093
O    -3.69218939   0.48876167  -0.24959865
H    -4.17466854   0.04734785  -0.99309545
H    -3.30678522  -0.36107983   0.04931165
O     0.03718320  -1.05410326   0.31018273
H     0.12277175  -0.16803751   0.65206049
H     0.52232146  -1.06094303  -0.51883049
6
# step=   321 energy=-149.92376577
O    -3.69348555   0.48937292  -0.25008750
H    -4.18002577   0.05197313  -0.98998847
H    -3.30966666  -0.36875183   0.03899297
O     0.03924998  -1.05306325   0.31007897
H     0.11814156  -0.18231931   0.66217328
H     0.52286047  -1.07003468  -0.51225004
6
# step=   322 energy=-149.92265427
O    -3.69481939   0.48983665  -0.25065675
H    -4.18710923   0.05898446  -0.98848699
H    -3.31032055  -0.37641968   0.03149261
O     0.04102843  -1.05258534   0.31015372
H     0.11521739  -0.18944636   0.67344982
H     0.52640825  -1.07731727  -0.50961555
6
# step=   323 energy=-149.92325704
O    -3.69616714   0.49011542  -0.25128059
H    -4.19610589   0.06832509  -0.98878675
H    -3.30904727  -0.38340197   0.02653753
O     0.04249870  -1.05272578   0.31040849
H     0.11423142  -0.18883767   0.68595455
H     0.53315725  -1.08249764  -0.51096036
6
# step=   324 energy=-149.92492358
O    -3.69749973   0.49016820  -0.25193433
H    -4.20697438   0.07985224  -0.99086298
H    -3.30628428  -0.38891491   0.02374409
O     0.04366792  -1.05345026   0.31083384
H     0.11528742  -0.18134665   0.69909974
H     0.54282063  -1.08525568  -0.51558166
6
# step=   325 energy=-149.92657331
O    -3.69879386   0.48996200  -0.25260109
H    -4.21945228   0.09336878  -0.99444275
H    -3.30254856  -0.39226010   0.02263046
O     0.04457394  -1.05464604   0.31141253
H     0.11835152  -0.16902531   0.71180102
H     0.55470851  -1.08531669  -0.52218030
6
# step=   326 energy=-149.92747606
O    -3.70003977   0.48947957  -0.25327577
H    -4.23311283   0.10866503  -0.99904534
H    -3.29835480  -0.39296766   0.02266990
O     0.04527829  -1.05615914   0.31212174
H     0.12328117  -0.15449580   0.72279925
H     0.56791068  -1.08250634  -0.52916795
6
# step=   327 energy=-149.92757219
O    -3.70124150   0.48872409  -0.25396407
H    -4.24741502   0.12551407  -1.00405451
H    -3.29415266  -0.39086730   0.02335102
O     0.04585324  -1.05782969   0.31293393
H     0.12985748  -0.14035442   0.73094223
H     0.58146287  -1.07678073  -0.53496508
6
# step=   328 energy=-149.92729011
O    -3.70241477   0.48772194  -0.25467926
H    -4.26176117   0.14365176  -1.00880285
H    -3.29028543  -0.38611744   0.02422004
O     0.04637133  -1.05951440   0.31381832
H     0.13780898  -0.12879129   0.73536795
H     0.59447322  -1.06824158  -0.53821863
6
# step=   329 energy=-149.92717681
O    -3.70358371   0.48652350  -0.25543808
H    -4.27555862   0.16275623  -1.01265644
H    -3.28696700  -0.37920061   0.02490653
O     0.04689803  -1.06109774   0.31474354
H     0.14682990  -0.12141047   0.73558839
H     0.60620704  -1.05713524  -0.53793454
6
# step=   330 energy=-149.92759072
O    -3.70477661   0.48520162  -0.25625620
H    -4.28827787   0.18243265  -1.01509048
H    -3.28427670  -0.37088731   0.02513473
O     0.04748671  -1.06249619   0.31568020
H     0.15659449  -0.11916833   0.73151184
H     0.61613893  -1.04384191  -0.53354873
6
# step=   331 energy=-149.92854000
O    -3.70602121   0.48384719  -0.25714388
H    -4.29950573   0.20221062  -1.01575188
H    -3.28217280  -0.36216403   0.02472077
O     0.04817499  -1.06366044   0.31660282
H     0.16677130  -0.12235317   0.72344277
H     0.62398730  -1.02885942  -0.52496339
6
# step=   332 energy=-149.92966518
O    -3.70733976   0.48256093  -0.25810203
H    -4.30899319   0.22156142  -1.01450517
H    -3.28052708  -0.35411913   0.02355489
O     0.04898210  -1.06457784   0.31749122
H     0.17704291  -0.13057119   0.71207359
H     0.62974048  -1.01277844  -0.51255902
6
# step=   333 energy=-149.93035794
O    -3.70874409   0.48144233  -0.25911920
H    -4.31668951   0.23992984  -1.01145522
H    -3.27918057  -0.34779445   0.02156858
O     0.04990729  -1.06527467   0.31833121
H     0.18713029  -0.14274689   0.69846290
H     0.63366910  -0.99624904  -0.49717711
6
# step=   334 energy=-149.93001538
O    -3.71023121   0.48057787  -0.26016945
H    -4.32275311   0.25676925  -1.00694227
H    -3.27801245  -0.34402977   0.01869233
O     0.05092976  -1.06581573   0.31911431
H     0.19681557  -0.15716789   0.68398800
H     0.63631364  -0.97994389  -0.48006447
6
# step=   335 energy=-149.92839228
O    -3.71178074   0.48003102  -0.26121240
H    -4.32753486   0.27157555  -1.00150658
H    -3.27700395  -0.34333499   0.01481657
O     0.05201136  -1.06629812   0.31983712
H     0.20595458  -0.17162507   0.67025042
H     0.63843484  -0.96451985  -0.46276457
6
# step=   336 energy=-149.92589259
O    -3.71335596   0.47983610  -0.26219631
H    -4.33153190   0.28392014  -0.99582049
H    -3.27627643  -0.34582377   0.00976911
O     0.05310378  -1.06683540   0.32050070
H     0.21446847  -0.18370718   0.65891116
H     0.64091525  -0.95057846  -0.44693873
6
# step=   337 energy=-149.92352039
O    -3.71490961   0.47999764  -0.26306489
H    -4.33531271   0.29348111  -0.99058899
H    -3.27609005  -0.35122879   0.00331577
O     0.05416128  -1.06753124   0.32111032
H     0.22230583  -0.19126364   0.65145636
H     0.64461060  -0.93862900  -0.43411862
6
# step=   338 energy=-149.92234716
O    -3.71639344   0.48049493  -0.26376658
H    -4.33942189   0.30006414  -0.98643292
H    -3.27680597  -0.35899243  -0.00481901
O     0.05515679  -1.06844831   0.32167484
H     0.22937882  -0.19292811   0.64895041
H     0.65017602  -0.92906759  -0.42543929
6
# step=   339 energy=-149.92281521
O    -3.71776439   0.48128814  -0.26426185
H    -4.34427012   0.30359348  -0.98379011
H    -3.27882493  -0.36837157  -0.01489458
O     0.05609279  -1.06958197   0.32220319
H     0.23548318  -0.18849365   0.65186826
H     0.65789801  -0.92220498  -0.42145368
6
# step=   340 energy=-149.92445757
O    -3.71898641   0.48231881  -0.26452969
H    -4.35001931   0.30412143  -0.98283491
H    -3.28249880  -0.37849703  -0.02703918
O     0.05700183  -1.07084794   0.32269837
H     0.24025857  -0.17904157   0.65999488
H     0.66755343  -0.91829478  -0.42202824
6
# step=   341 energy=-149.92629978
O    -3.72004457   0.48351691  -0.26457724
H    -4.35655165   0.30188877  -0.98340805
H    -3.28805246  -0.38851951  -0.04122669
O     0.05794480  -1.07210483   0.32315727
H     0.24329069  -0.16667529   0.67247402
H     0.67845029  -0.91746521  -0.42632840
6
# step=   342 energy=-149.92755451
O    -3.72095157   0.48481200  -0.26443998
H    -4.36351840   0.29731697  -0.98504854
H    -3.29555029  -0.39775154  -0.05730584
O     0.05899910  -1.07319462   0.32357240
H     0.24422979  -0.15392455   0.68806474
H     0.68961905  -0.91969694  -0.43303775
6
# step=   343 energy=-149.92800351
O    -3.72174282   0.48613940  -0.26417434
H    -4.37042583   0.29096637  -0.98710172
H    -3.30488433  -0.40572603  -0.07500847
O     0.06024105  -1.07397540   0.32393396
H     0.24286194  -0.14320478   0.70540325
H     0.70001713  -0.92483758  -0.44065561
6
# step=   344 energy=-149.92793240
O    -3.72246807   0.48744370  -0.26384795
H    -4.37674392   0.28349140  -0.98885146
H    -3.31577929  -0.41221227  -0.09396215
O     0.06173177  -1.07434179   0.32423303
H     0.23914122  -0.13647298   0.72319249
H     0.70870334  -0.93261463  -0.44774879
6
# step=   345 energy=-149.92782927
O    -3.72318267   0.48868073  -0.26353009
H    -4.38201323   0.27559539  -0.98964488
H    -3.32781222  -0.41720560  -0.11371162
O     0.06350853  -1.07423431   0.32446471
H     0.23319155  -0.13506318   0.74031799
H     0.71496059  -0.94264722  -0.45312408
6
# step=   346 energy=-149.92807502
O    -3.72393955   0.48981811  -0.26328351
H    -4.38593053   0.26798727  -0.98899081
H    -3.34044289  -0.42089520  -0.13374472
O     0.06558036  -1.07364181   0.32462997
H     0.22529316  -0.13963231   0.75591168
H     0.71836786  -0.95445849  -0.45592813
6
# step=   347 energy=-149.92874335
O    -3.72478266   0.49083438  -0.26315822
H    -4.38840615   0.26134059  -0.98662538
H    -3.35305392  -0.42361191  -0.15352172
O     0.06792641  -1.07260095   0.32473601
H     0.21586406  -0.15015123   0.76939233
H     0.71883651  -0.96749038  -0.45569845
6
# step=   348 energy=-149.92954748
O    -3.72574195   0.49171715  -0.26318726
H    -4.38959192   0.25625406  -0.98254439
H    -3.36500210  -0.42575868  -0.17251052
O     0.07049658  -1.07119444   0.32479520
H     0.20543716  -0.16591059   0.78050386
H     0.71662319  -0.98112610  -0.45238468
6
# step=   349 energy=-149.92994463
O    -3.72683034   0.49246032  -0.26338463
H    -4.38987855   0.25321655  -0.97700202
H    -3.37567703  -0.42772953  -0.19022470
O     0.07321451  -1.06954743   0.32482280
H     0.19462910  -0.18554841   0.78935191
H     0.71232026  -0.99472281  -0.44634452
6
# step=   350 energy=-149.92939325
O    -3.72804293   0.49306073  -0.26374578
H    -4.38986144   0.25258264  -0.97047607
H    -3.38455720  -0.42982940  -0.20625614
O     0.07598301  -1.06782035   0.32483402
H     0.18409905  -0.20712650   0.79642004
H     0.70681878  -1.00765084  -0.43830830
6
# step=   351 energy=-149.92770174
O    -3.72935865   0.49351501  -0.26425048
H    -4.39027561   0.25456324  -0.96360131
H    -3.39125525  -0.43221213  -0.22029862
O     0.07869221  -1.06619615   0.32484169
H     0.17449723  -0.22829763   0.80253342
H     0.70123704  -1.01933324  -0.42930149
6
# step=   352 energy=-149.92529388
O    -3.73074487   0.49381732  -0.26486818
H    -4.39190305   0.25923415  -0.95707365
H    -3.39554732  -0.43485112  -0.23216361
O     0.08123091  -1.06485958   0.32485615
H     0.16640706  -0.24660601   0.80873260
H     0.69680716  -1.02927892  -0.42051146
6
# step=   353 energy=-149.92313586
O    -3.73216488   0.49395850  -0.26556541
H    -4.39546222   0.26656523  -0.95153348
H    -3.39738243  -0.43754954  -0.24178938
O     0.08350059  -1.06396941   0.32488853
H     0.16029271  -0.25991849   0.81603940
H     0.69472102  -1.03710065  -0.41309510
6
# step=   354 energy=-149.92222555
O    -3.73358653   0.49392620  -0.26631365
H    -4.40149795   0.27646476  -0.94745039
H    -3.39686795  -0.43998403  -0.24923677
O     0.08542866  -1.06363095   0.32495596
H     0.15647380  -0.26687590   0.82515730
H     0.69595856  -1.04250681  -0.40795570
6
# step=   355 energy=-149.92295020
O    -3.73498508   0.49370662  -0.26709337
H    -4.41026600   0.28878385  -0.94504582
H    -3.39424301  -0.44175985  -0.25465040
O     0.08697144  -1.06387965   0.32508447
H     0.15514399  -0.26717506   0.83618653
H     0.70112386  -1.04525837  -0.40555640
6
# step=   356 energy=-149.92482396
O    -3.73634203   0.49329053  -0.26789370
H    -4.42160255   0.30325286  -0.94423931
H    -3.38987646  -0.44248197  -0.25823532
O     0.08811535  -1.06467389   0.32530443
H     0.15637535  -0.26165167   0.84847385
H     0.71027108  -1.04516342  -0.40577955
6
# step=   357 energy=-149.92685999
O    -3.73765570   0.49267905  -0.26871669
H    -4.43493916   0.31952503  -0.94462700
H    -3.38423079  -0.44185418  -0.26028998
O     0.08888976  -1.06590730   0.32564080
H     0.16009972  -0.25206245   0.86081471
H     0.72286575  -1.04213425  -0.40789217
6
# step=   358 energy=-149.92822811
O    -3.73894409   0.49188629  -0.26957656
H    -4.44942292   0.33722277  -0.94556405
H    -3.37779359  -0.43974380  -0.26119026
O     0.08936280  -1.06744070   0.32610463
H     0.16613167  -0.24057923   0.87181536
H     0.73792603  -1.03620706  -0.41071890
6
# step=   359 energy=-149.92864703
O    -3.74023872   0.49094121  -0.27049310
H    -4.46405345   0.35593137  -0.94629815
H    -3.37102752  -0.43620812  -0.26135336
O     0.08962665  -1.06913015   0.32668987
H     0.17419374  -0.22932896   0.88019927
H     0.75422084  -1.02754921  -0.41290458
6
# step=   360 energy=-149.92836639
O    -3.74157649   0.48988775  -0.27148452
H    -4.47782642   0.37519050  -0.94610479
H    -3.36433817  -0.43149199  -0.26120851
O     0.08978281  -1.07084496   0.32737586
H     0.18393617  -0.22010121   0.88500490
H     0.77046779  -1.01646002  -0.41316176
6
# step=   361 energy=-149.92790131
O    -3.74299193   0.48878256  -0.27256134
H    -4.48986273   0.39449840  -0.94439930
H    -3.35805757  -0.42599898  -0.26117501
O     0.08992993  -1.07247724   0.32813263
H     0.19495681  -0.21420394   0.88567929
H     0.78549599  -1.00335860  -0.41045419
6
# step=   362 energy=-149.92772208
O    -3.74451050   0.48769075  -0.27372224
H    -4.49950810   0.41332688  -0.94081564
H    -3.35244305  -0.42024064  -0.26164611
O     0.09015488  -1.07394654   0.32892583
H     0.20682135  -0.21240941   0.88210466
H     0.79836015  -0.98876212  -0.40410899
6
# step=   363 energy=-149.92802238
O    -3.74614286   0.48668024  -0.27495147
H    -4.50640115   0.43114328  -0.93525316
H    -3.34768911  -0.41477014  -0.26297692
O     0.09052620  -1.07520228   0.32972023
H     0.21908293  -0.21493770   0.87459713
H     0.80841434  -0.97326076  -0.39387586
6
# step=   364 energy=-149.92862097
O    -3.74788087   0.48581507  -0.27621813
H    -4.51051471   0.44744047  -0.92789552
H    -3.34394672  -0.41010686  -0.26547506
O     0.09108943  -1.07622579   0.33048180
H     0.23130337  -0.22145123   0.86389604
H     0.81536168  -0.95748888  -0.37995286
6
# step=   365 energy=-149.92902596
O    -3.74969574   0.48514871  -0.27747736
H    -4.51216930   0.46177277  -0.91920106
H    -3.34134438  -0.40666358  -0.26939341
O     0.09186362  -1.07703194   0.33117937
H     0.24307924  -0.23106669   0.85113750
H     0.81928886  -0.94208872  -0.36298387
6
# step=   366 energy=-149.92867039
O    -3.75153906   0.48471869  -0.27867358
H    -4.51200857   0.47378911  -0.90986146
H    -3.34000590  -0.40469151  -0.27492602
O     0.09283983  -1.07766823   0.33178671
H     0.25406598  -0.24241367   0.83779290
H     0.82067662  -0.92766924  -0.34402411
6
# step=   367 energy=-149.92726441
O    -3.75334732   0.48454400  -0.27974559
H    -4.51092743   0.48325421  -0.90072624
H    -3.34006022  -0.40425695  -0.28220703
O     0.09398267  -1.07820859   0.33228540
H     0.26399016  -0.25377604   0.82555187
H     0.82037234  -0.91476565  -0.32446427
6
# step=   368 energy=-149.92509338
O    -3.75505036   0.48462555  -0.28063366
H    -4.50994850   0.49005526  -0.89269143
H    -3.34163990  -0.40525324  -0.29131340
O     0.09523670  -1.07873997   0.33266874
H     0.27264123  -0.26334525   0.81613278
H     0.81950618  -0.90380409  -0.30589783
6
# step=   369 energy=-149.92301245
O    -3.75658362   0.48494964  -0.28128841
H    -4.51005443   0.49419403  -0.88655926
H    -3.34487077  -0.40744285  -0.30227447
O     0.09653926  -1.07934183   0.33294560
H     0.27984031  -0.26957523   0.81103034
H     0.81933515  -0.89507894  -0.28992043
6
# step=   370 energy=-149.92201839
O    -3.75790134   0.48549329  -0.28167918
H    -4.51200713   0.49576394  -0.88289709
H    -3.34985906  -0.41051628  -0.31508721
O     0.09783823  -1.08006330   0.33314177
H     0.28539333  -0.27154799   0.81126210
H     0.82102320  -0.88875757  -0.27788794
6
# step=   371 energy=-149.92263190
O    -3.75898290   0.48622769  -0.28179913
H    -4.51619220   0.49492015  -0.88194015
H    -3.35666129  -0.41413805  -0.32968716
O     0.09910553  -1.08090372   0.33329595
H     0.28903850  -0.26921089   0.81719139
H     0.82539332  -0.88493276  -0.27072185
6
# step=   372 energy=-149.92453758
O    -3.75983398   0.48711557  -0.28166954
H    -4.52249861   0.49189198  -0.88352376
H    -3.36521345  -0.41796224  -0.34585134
O     0.10034162  -1.08180298   0.33345107
H     0.29045091  -0.26344459   0.82840234
H     0.83267935  -0.88366458  -0.26874047
6
# step=   373 energy=-149.92680155
O    -3.76049372   0.48811464  -0.28134152
H    -4.53034125   0.48700674  -0.88707545
H    -3.37533070  -0.42167603  -0.36325427
O     0.10158288  -1.08265800   0.33364476
H     0.28935225  -0.25586246   0.84377781
H     0.84243372  -0.88495245  -0.27150857
6
# step=   374 energy=-149.92849368
O    -3.76102897   0.48918249  -0.28088715
H    -4.53883273   0.48067359  -0.89174321
H    -3.38674566  -0.42503196  -0.38154664
O     0.10289513  -1.08335169   0.33390192
H     0.28559372  -0.24837917   0.86180418
H     0.85366655  -0.88873323  -0.27795936
6
# step=   375 energy=-149.92917741
O    -3.76151971   0.49027740  -0.28038753
H    -4.54698883   0.47336799  -0.89656763
H    -3.39912506  -0.42784760  -0.40036815
O     0.10435508  -1.08377789   0.33423263
H     0.27919418  -0.24281280   0.88086888
H     0.86509415  -0.89487769  -0.28666332
6
# step=   376 energy=-149.92899571
O    -3.76204526   0.49135838  -0.27992220
H    -4.55391531   0.46561591  -0.90063703
H    -3.41208355  -0.42999597  -0.41935108
O     0.10603211  -1.08385866   0.33463434
H     0.27034725  -0.24061923   0.89948209
H     0.87540246  -0.90317423  -0.29609681
6
# step=   377 energy=-149.92843688
O    -3.76267387   0.49238576  -0.27956106
H    -4.55894725   0.45797263  -0.90320334
H    -3.42519920  -0.43139600  -0.43812683
O     0.10797530  -1.08355344   0.33509574
H     0.25940452  -0.24275539   0.91641814
H     0.88345965  -0.91331631  -0.30485150
6
# step=   378 energy=-149.92800113
O    -3.76345600   0.49332215  -0.27935905
H    -4.56173346   0.45099775  -0.90375478
H    -3.43802844  -0.43200592  -0.45633374
O     0.11020608  -1.08286203   0.33560004
H     0.24684754  -0.24963089   0.93079397
H     0.88845360  -0.92490074  -0.31176999
6
# step=   379 energy=-149.92794104
O    -3.76442047   0.49413373  -0.27935310
H    -4.56227443   0.44522942  -0.90205232
H    -3.45012001  -0.43182020  -0.47362499
O     0.11271496  -1.08182417   0.33612682
H     0.23325773  -0.26110438   0.94211086
H     0.88996544  -0.93743576  -0.31602180
6
# step=   380 energy=-149.92815523
O    -3.76557299   0.49479180  -0.27956061
H    -4.56092488   0.44115806  -0.89813910
H    -3.46103071  -0.43086899  -0.48967955
O     0.11546103  -1.08051734   0.33665272
H     0.21928443  -0.27650063   0.95028039
H     0.88800298  -0.95035768  -0.31714417
6
# step=   381 energy=-149.92825441
O    -3.76689677   0.49527436  -0.27997947
H    -4.55836375   0.43919995  -0.89232462
H    -3.47034707  -0.42921742  -0.50421926
O     0.11837407  -1.07905250   0.33715203
H     0.20560530  -0.29465251   0.95563806
H     0.88300926  -0.96305782  -0.31506371
6
# step=   382 energy=-149.92778171
O    -3.76835569   0.49556747  -0.28058991
H    -4.55552632   0.43967491  -0.88513922
H    -3.47771125  -0.42696188  -0.51702904
O     0.12135904  -1.07756643   0.33759825
H     0.19287785  -0.31398941   0.95892557
H     0.87584656  -0.97491826  -0.31009945
6
# step=   383 energy=-149.92651548
O    -3.76990019   0.49566568  -0.28135868
H    -4.55349326   0.44279275  -0.87725458
H    -3.48284679  -0.42422189  -0.52797462
O     0.12430296  -1.07620965   0.33796774
H     0.18168832  -0.33269474   0.96121192
H     0.86774792  -0.98535053  -0.30293630
6
# step=   384 energy=-149.92470631
O    -3.77147617   0.49557169  -0.28224570
H    -4.55333789   0.44865088  -0.86937147
H    -3.48558064  -0.42112853  -0.53701516
O     0.12708424  -1.07512944   0.33824573
H     0.17250857  -0.34894488   0.96372826
H     0.86022133  -0.99383143  -0.29455077
6
# step=   385 energy=-149.92306232
O    -3.77303599   0.49529516  -0.28321236
H    -4.55594812   0.45724329  -0.86208744
H    -3.48585723  -0.41781113  -0.54420923
O     0.12958486  -1.07444965   0.33843346
H     0.16567387  -0.36120899   0.96761899
H     0.85488998  -0.99992926  -0.28606859
6
# step=   386 energy=-149.92240424
O    -3.77454902   0.49485133  -0.28422944
H    -4.56185741   0.46847241  -0.85577656
H    -3.48374054  -0.41438693  -0.54970889
O     0.13170374  -1.07425264   0.33855256
H     0.16139410  -0.36853048   0.97366178
H     0.85326876  -1.00331190  -0.27855490
6
# step=   387 energy=-149.92316073
O    -3.77600496   0.49426157  -0.28527963
H    -4.57110499   0.48212077  -0.85052897
H    -3.47941663  -0.41096404  -0.55373431
O     0.13336582  -1.07456826   0.33864235
H     0.15979388  -0.37068770   0.98203460
H     0.85649444  -1.00373990  -0.27278347
6
# step=   388 energy=-149.92504704
O    -3.77741229   0.49355616  -0.28635532
H    -4.58314744   0.49778710  -0.84614935
H    -3.47321325  -0.40764696  -0.55655822
O     0.13453497  -1.07536808   0.33874908
H     0.16092181  -0.36823290   0.99221621
H     0.86501654  -1.00109447  -0.26901752
6
# step=   389 energy=-149.92721556
O    -3.77880034   0.49277234  -0.28745942
H    -4.59695321   0.51492454  -0.84219787
H    -3.46557807  -0.40451620  -0.55851059
O     0.13523310  -1.07657262   0.33891152
H     0.16472655  -0.36236003   1.00314303
H     0.87842096  -0.99542176  -0.26687693
6
# step=   390 energy=-149.92878127
O    -3.78021332   0.49195052  -0.28860206
H    -4.61122739   0.53290662  -0.83810808
H    -3.45702702  -0.40161162  -0.55995631
O     0.13553902  -1.07807190   0.33915068
H     0.17105429  -0.35459460   1.01351445
H     0.89552942  -0.98693626  -0.26543676
6
# step=   391 energy=-149.92929632
O    -3.78169807   0.49113139  -0.28979356
H    -4.62464190   0.55106705  -0.83332903
H    -3.44810555  -0.39892739  -0.56126303
O     0.13557095  -1.07974514   0.33946835
H     0.17964969  -0.34648901   1.02207665
H     0.91467207  -0.97600871  -0.26348988
6
# step=   392 energy=-149.92888315
O    -3.78329279   0.49035316  -0.29103842
H    -4.63603059   0.56873945  -0.82743895
H    -3.43936008  -0.39641129  -0.56277612
O     0.13546528  -1.08147535   0.33985204
H     0.19016009  -0.33940895   1.02782315
H     0.93401124  -0.96314211  -0.25983462
6
# step=   393 energy=-149.92804226
O    -3.78501915   0.48964906  -0.29233164
H    -4.64452988   0.58529995  -0.82021507
H    -3.43131514  -0.39396946  -0.56480265
O     0.13535753  -1.08315928   0.34028158
H     0.20214930  -0.33441031   1.03010651
H     0.95182220  -0.94893464  -0.25349650
6
# step=   394 energy=-149.92732638
O    -3.78687775   0.48904556  -0.29365707
H    -4.64966327   0.60020594  -0.81166473
H    -3.42445445  -0.39147859  -0.56760312
O     0.13536848  -1.08471361   0.34073405
H     0.21511874  -0.33217965   1.02868461
H     0.96668770  -0.93403687  -0.24385712
6
# step=   395 energy=-149.92706253
O    -3.78884608   0.48856155  -0.29498695
H    -4.65138082   0.61302649  -0.80202970
H    -3.41920446  -0.38880535  -0.57138895
O     0.13559514  -1.08607888   0.34118626
H     0.22852949  -0.33300996   1.02373104
H     0.97761131  -0.91911187  -0.23070999
6
# step=   396 energy=-149.92721699
O    -3.79087868   0.48820821  -0.29628252
H    -4.65006546   0.62346574  -0.79177143
H    -3.41591698  -0.38583106  -0.57632285
O     0.13610479  -1.08722187   0.34161566
H     0.24182367  -0.33679405   1.01582957
H     0.98408137  -0.90479995  -0.21427408
6
# step=   397 energy=-149.92743220
O    -3.79291002   0.48798952  -0.29749601
H    -4.64650487   0.63138129  -0.78153507
H    -3.41484934  -0.38247765  -0.58252211
O     0.13693091  -1.08813737   0.34200103
H     0.25444829  -0.34303508   1.00595067
H     0.98611206  -0.89168088  -0.19518242
6
# step=   398 energy=-149.92722473
O    -3.79486113   0.48790344  -0.29857447
H    -4.64181327   0.63679029  -0.77208631
H    -3.41614662  -0.37873073  -0.59006551
O     0.13807085  -1.08884805   0.34232413
H     0.26588129  -0.35089157   0.99539329
H     0.98426355  -0.88023219  -0.17444480
6
# step=   399 energy=-149.92628269
O    -3.79664976   0.48794421  -0.29946527
H    -4.63728929   0.63985268  -0.76421995
H    -3.41983231  -0.37465565  -0.59900337
O     0.13948639  -1.08940095   0.34257275
H     0.27565220  -0.35927634   0.98567501
H     0.97962379  -0.87079082  -0.15338001
6
# step=   400 energy=-149.92472892
O    -3.79820365   0.48810540  -0.30012293
H    -4.63421198   0.64082898  -0.75864487
H    -3.42581126  -0.37040242  -0.60936906
O     0.14110898  -1.08985894   0.34274482
H     0.28335205  -0.36702049   0.97836105
H     0.97372627  -0.86352743  -0.13350594
6
# step=   401 energy=-149.92317185
O    -3.79947489   0.48838323  -0.30051655
H    -4.63360480   0.64002085  -0.75586105
H    -3.43388691  -0.36619429  -0.62119026
O     0.14285151  -1.09028741   0.34285261
H     0.28863269  -0.37309244   0.97484101
H     0.96837356  -0.85844516  -0.11637535
6
# step=   402 energy=-149.92243599
O    -3.80045132   0.48877836  -0.30063586
H    -4.63602832   0.63771227  -0.75605967
H    -3.44378878  -0.36229894  -0.63449173
O     0.14462647  -1.09073773   0.34292437
H     0.29119865  -0.37682460   0.97609532
H     0.96535659  -0.85541678  -0.10336869
6
# step=   403 energy=-149.92307291
O    -3.80115937   0.48929417  -0.30049480
H    -4.64145927   0.63414088  -0.75907092
H    -3.45518143  -0.35898921  -0.64925486
O     0.14636397  -1.09123128   0.34300147
H     0.29080452  -0.37807390   0.98250305
H     0.96610302  -0.85426193  -0.09549263
6
# step=   404 energy=-149.92495453
O    -3.80165981   0.48993015  -0.30013378
H    -4.64927441   0.62951806  -0.76435372
H    -3.46765101  -0.35648669  -0.66533797
O     0.14802622  -1.09174942   0.34313054
H     0.28729917  -0.37727869   0.99370896
H     0.97130407  -0.85482222  -0.09317407
6
# step=   405 energy=-149.92729290
O    -3.80203967   0.49067658  -0.29961714
H    -4.65840399   0.62405438  -0.77107460
H    -3.48076300  -0.35487840  -0.68248264
O     0.14962299  -1.09223793   0.34335292
H     0.28069149  -0.37537115   1.00867405
H     0.98068291  -0.85700116  -0.09609784
6
# step=   406 energy=-149.92912087
O    -3.80239664   0.49151163  -0.29902433
H    -4.66760287   0.61797936  -0.77826585
H    -3.49412632  -0.35406567  -0.70034450
O     0.15120994  -1.09262283   0.34369658
H     0.27116916  -0.37354273   1.02592813
H     0.99308770  -0.86076981  -0.10328250
6
# step=   407 energy=-149.92983773
O    -3.80282272   0.49240018  -0.29844030
H    -4.67569949   0.61156261  -0.78497466
H    -3.50740575  -0.35376650  -0.71849726
O     0.15286883  -1.09282925   0.34417312
H     0.25908823  -0.37298400   1.04385841
H     1.00681983  -0.86612497  -0.11332027
6
# step=   408 energy=-149.92944233
O    -3.80339300   0.49329585  -0.29794726
H    -4.68177450   0.60512287  -0.79037390
H    -3.52031007  -0.35356087  -0.73644719
O     0.15468370  -1.09279774   0.34477892
H     0.24494512  -0.37468356   1.06095100
H     1.02002876  -0.87302617  -0.12464516
6
# step=   409 energy=-149.92839571
O    -3.80415975   0.49414586  -0.29761777
H    -4.68526561   0.59902257  -0.79383282
H    -3.53257331  -0.35296465  -0.75366778
O     0.15672219  -1.09249470   0.34549823
H     0.22933671  -0.37930793   1.07595897
H     1.03104367  -0.88134645  -0.13575441
6
# step=   410 energy=-149.92729788
O    -3.80515038   0.49489699  -0.29750932
H    -4.68601249   0.59365373  -0.79495408
H    -3.54393683  -0.35151323  -0.76964680
O     0.15902444  -1.09191687   0.34630611
H     0.21291766  -0.38715014   1.08799988
H     1.03858722  -0.89085023  -0.14535617
6
# step=   411 energy=-149.92658607
O    -3.80636764   0.49550134  -0.29766036
H    -4.68426032   0.58942080  -0.79358619
H    -3.55413667  -0.34883751  -0.78393390
O     0.16159838  -1.09109172   0.34717044
H     0.19636241  -0.39812233   1.09660121
H     1.04188313  -0.90119293  -0.15245112
6
# step=   412 energy=-149.92636919
O    -3.80779080   0.49592089  -0.29808760
H    -4.68063411   0.58672236  -0.78981868
H    -3.56289891  -0.34472190  -0.79618199
O     0.16441839  -1.09007559   0.34805330
H     0.18033303  -0.41177123   1.10171452
H     1.04069904  -0.91193194  -0.15637371
6
# step=   413 energy=-149.92642781
O    -3.80937831   0.49613092  -0.29878500
H    -4.67608237   0.58592952  -0.78396050
H    -3.56994704  -0.33914027  -0.80618246
O     0.16742588  -1.08895031   0.34891265
H     0.16544625  -0.42731213   1.10371023
H     1.03536254  -0.92254483  -0.15681835
6
# step=   414 energy=-149.92636286
O    -3.81107316   0.49612246  -0.29972497
H    -4.67177554   0.58735976  -0.77649285
H    -3.57502183  -0.33226638  -0.81389392
O     0.17053213  -1.08781757   0.34970568
H     0.15223428  -0.44369305   1.10334562
H     1.02676006  -0.93245660  -0.15385873
6
# step=   415 energy=-149.92583888
O    -3.81281181   0.49590314  -0.30086301
H    -4.66894849   0.59124892  -0.76798911
H    -3.57790747  -0.32445733  -0.81945622
O     0.17362332  -1.08679043   0.35039421
H     0.14110797  -0.45969938   1.10168508
H     1.01630428  -0.94107359  -0.14794758
6
# step=   416 energy=-149.92482375
O    -3.81453601   0.49549658  -0.30214508
H    -4.66869655   0.59772339  -0.75900844
H    -3.57845743  -0.31621230  -0.82318323
O     0.17656810  -1.08598235   0.35095123
H     0.13233718  -0.47409713   1.09995870
H     1.00584377  -0.94781953  -0.13987411
6
# step=   417 energy=-149.92369582
O    -3.81620535   0.49494026  -0.30351672
H    -4.67176067   0.60677417  -0.74998546
H    -3.57661651  -0.30811031  -0.82553289
O     0.17922903  -1.08549456   0.35136657
H     0.12605833  -0.48580073   1.09936421
H     0.99748039  -0.95217214  -0.13065222
6
# step=   418 energy=-149.92310879
O    -3.81780654   0.49428214  -0.30493100
H    -4.67835806   0.61823372  -0.74115169
H    -3.57243834  -0.30073394  -0.82705585
O     0.18147890  -1.08540366   0.35164850
H     0.12231054  -0.49403341   1.10084453
H     0.99326870  -0.95369997  -0.12132554
6
# step=   419 energy=-149.92361297
O    -3.81935447   0.49357682  -0.30635209
H    -4.68810458   0.63174762  -0.73252594
H    -3.56610568  -0.29459136  -0.82832674
O     0.18322025  -1.08575123   0.35181894
H     0.12108631  -0.49843857   1.10489314
H     0.99481199  -0.95210512  -0.11271871
6
# step=   420 energy=-149.92522688
O    -3.82088472   0.49288078  -0.30775444
H    -4.70004959   0.64675078  -0.72397339
H    -3.55795921  -0.29003345  -0.82986672
O     0.18440772  -1.08653549   0.35190432
H     0.12235854  -0.49913299   1.11143715
H     1.00282282  -0.94728691  -0.10520366
6
# step=   421 energy=-149.92731767
O    -3.82244417   0.49224429  -0.30912371
H    -4.71286294   0.66251707  -0.71528429
H    -3.54849716  -0.28716305  -0.83207046
O     0.18506803  -1.08770963   0.35192723
H     0.12606977  -0.49668847   1.11986049
H     1.01684906  -0.93939801  -0.09857070
6
# step=   422 energy=-149.92897080
O    -3.82407963   0.49170356  -0.31045652
H    -4.72511381   0.67826058  -0.70625799
H    -3.53833836  -0.28579292  -0.83515866
O     0.18529883  -1.08919077   0.35190333
H     0.13211090  -0.49200829   1.12917231
H     1.03537458  -0.92884198  -0.09211329
6
# step=   423 energy=-149.92955058
O    -3.82582598   0.49127747  -0.31175650
H    -4.73551664   0.69322211  -0.69677904
H    -3.52817835  -0.28547589  -0.83917099
O     0.18524632  -1.09087400   0.35184390
H     0.14029575  -0.48615522   1.13822973
H     1.05621434  -0.91622449  -0.08488677
6
# step=   424 energy=-149.92900771
O    -3.82769806   0.49096837  -0.31302933
H    -4.74310126   0.70673511  -0.68686198
H    -3.51874114  -0.28558604  -0.84399782
O     0.18507624  -1.09264666   0.35176057
H     0.15034058  -0.48019431   1.14594160
H     1.07699140  -0.90228001  -0.07599021
6
# step=   425 energy=-149.92779232
O    -3.82968766   0.49076562  -0.31427818
H    -4.74730956   0.71827409  -0.67666336
H    -3.51072593  -0.28542533  -0.84943720
O     0.18494925  -1.09440073   0.35166792
H     0.16185946  -0.47507288   1.15142106
H     1.09553103  -0.88779205  -0.06476493
6
# step=   426 energy=-149.92653830
O    -3.83176409   0.49065034  -0.31550011
H    -4.74803410   0.72748542  -0.66647244
H    -3.50475493  -0.28433109  -0.85525979
O     0.18500440  -1.09604219   0.35158316
H     0.17437545  -0.47153982   1.15408203
H     1.11010910  -0.87352289  -0.05088716
6
# step=   427 energy=-149.92574271
O    -3.83387680   0.49060004  -0.31668352
H    -4.74561487   0.73420172  -0.65669071
H    -3.50132861  -0.28176676  -0.86126678
O     0.18535008  -1.09749708   0.35152378
H     0.18733854  -0.47009801   1.15369067
H     1.11957294  -0.86016226  -0.03438608
6
# step=   428 energy=-149.92557169
O    -3.83595881   0.49059262  -0.31780653
H    -4.74080497   0.73844211  -0.64780573
H    -3.50079027  -0.27739012  -0.86733388
O     0.18605910  -1.09871497   0.35150479
H     0.20014227  -0.47097933   1.15038837
H     1.12338877  -0.84829301  -0.01562957
6
# step=   429 energy=-149.92583055
O    -3.83793227   0.49060975  -0.31883706
H    -4.73469959   0.74040072  -0.64035323
H    -3.50329697  -0.27110018  -0.87344209
O     0.18716531  -1.09967117   0.35153642
H     0.21214102  -0.47413414   1.14469647
H     1.12166741  -0.83836166   0.00470032
6
# step=   430 energy=-149.92608765
O    -3.83971788   0.49064017  -0.31973523
H    -4.72860771   0.74041823  -0.63485877
H    -3.50880039  -0.26305947  -0.87969885
O     0.18866099  -1.10036856   0.35162306
H     0.22267682  -0.47923928   1.13749438
H     1.11518195  -0.83064305   0.02564924
6
# step=   431 energy=-149.92591091
O    -3.84124791   0.49068276  -0.32045807
H    -4.72385666   0.73892701  -0.63176301
H    -3.51704921  -0.25368481  -0.88634663
O     0.19049683  -1.10083744   0.35176369
H     0.23111327  -0.48573778   1.12995362
H     1.10535031  -0.82520752   0.04605748
6
# step=   432 energy=-149.92513664
O    -3.84248003   0.49074885  -0.32096556
H    -4.72155547   0.73637430  -0.63134407
H    -3.52761803  -0.24360231  -0.89375053
O     0.19258623  -1.10113155   0.35195400
H     0.23686920  -0.49291865   1.12341759
H     1.09414551  -0.82190819   0.06465333
6
# step=   433 energy=-149.92404907
O    -3.84340825   0.49086195  -0.32122753
H    -4.72237362   0.73314443  -0.63365285
H    -3.53996134  -0.23356345  -0.90235711
O     0.19481646  -1.10131934   0.35218975
H     0.23945180  -0.50003634   1.11922582
H     1.08389223  -0.82040433   0.08017993
6
# step=   434 energy=-149.92332500
O    -3.84406693   0.49105349  -0.32123053
H    -4.72640589   0.72950693  -0.63847912
H    -3.55348437  -0.22432553  -0.91261818
O     0.19706814  -1.10147028   0.35247026
H     0.23849053  -0.50645554   1.11849831
H     1.07692097  -0.82023518   0.09155464
6
# step=   435 energy=-149.92366366
O    -3.84452538   0.49135426  -0.32098389
H    -4.73316602   0.72561124  -0.64535500
H    -3.56760558  -0.21651758  -0.92487391
O     0.19923963  -1.10163832   0.35280048
H     0.23377644  -0.51178553   1.12191792
H     1.07510764  -0.82094118   0.09803692
6
# step=   436 energy=-149.92525293
O    -3.84487514   0.49178289  -0.32052486
H    -4.74169658   0.72152634  -0.65358805
H    -3.58179232  -0.21051473  -0.93920694
O     0.20126992  -1.10184713   0.35319048
H     0.22531907  -0.51596639   1.12955345
H     1.07939378  -0.82219537   0.09938301
6
# step=   437 energy=-149.92750268
O    -3.84521482   0.49233656  -0.31991970
H    -4.75078119   0.71729159  -0.66234403
H    -3.59560763  -0.20633499  -0.95535021
O     0.20315618  -1.10208396   0.35365327
H     0.21338846  -0.51928749   1.14080145
H     1.08947909  -0.82388869   0.09594695
6
# step=   438 energy=-149.92937383
O    -3.84563573   0.49298869  -0.31925752
H    -4.75920269   0.71295799  -0.67076682
H    -3.60874470  -0.20362402  -0.97270009
O     0.20495344  -1.10230602   0.35420237
H     0.19849251  -0.52231078   1.15451554
H     1.10391208  -0.82612385   0.08862514
6
# step=   439 energy=-149.93004590
O    -3.84621176   0.49369326  -0.31863955
H    -4.76594581   0.70861873  -0.67807631
H    -3.62100403  -0.20174961  -0.99039951
O     0.20675254  -1.10245583   0.35484895
H     0.18131819  -0.52572363   1.16924882
H     1.12051955  -0.82912238   0.07866792
6
# step=   440 energy=-149.92936275
O    -3.84699438   0.49439318  -0.31816689
H    -4.77031882   0.70442386  -0.68363206
H    -3.63224538  -0.19995142  -1.00746661
O     0.20865124  -1.10247812   0.35559937
H     0.16266249  -0.53018638   1.18350962
H     1.13693242  -0.83310501   0.06746076
6
# step=   441 energy=-149.92780110
O    -3.84801149   0.49502953  -0.31792910
H    -4.77201025   0.70058094  -0.68697004
H    -3.64234569  -0.19749138  -1.02293875
O     0.21073134  -1.10233263   0.35645333
H     0.14336278  -0.53621714   1.19597090
H     1.15101611  -0.83820071   0.05634158
6
# step=   442 energy=-149.92611981
O    -3.84926811   0.49554937  -0.31799517
H    -4.77110026   0.69734747  -0.68781838
H    -3.65117361  -0.19377123  -1.03599925
O     0.21304601  -1.10200102   0.35740266
H     0.12423551  -0.54412529   1.20560982
H     1.16113252  -0.84440244   0.04647926
6
# step=   443 energy=-149.92497101
O    -3.85074816   0.49591102  -0.31840783
H    -4.76804043   0.69501987  -0.68609662
H    -3.65857832  -0.18840711  -1.04606748
O     0.21561524  -1.10148897   0.35843063
H     0.10603051  -0.55398512   1.21178156
H     1.16625555  -0.85155831   0.03880917
6
# step=   444 energy=-149.92464970
O    -3.85241635   0.49608706  -0.31918056
H    -4.76360875   0.69391979  -0.68190296
H    -3.66438722  -0.18126929  -1.05285141
O     0.21842444  -1.10082582   0.35951136
H     0.08940444  -0.56563101   1.21424666
H     1.16600254  -0.85937727   0.03400623
6
# step=   445 energy=-149.92502671
O    -3.85422089   0.49606635  -0.32029608
H    -4.75883483   0.69437207  -0.67549350
H    -3.66841282  -0.17250021  -1.05637759
O     0.22142337  -1.10006332   0.36060961
H     0.07490291  -0.57866148   1.21317812
H     1.16064552  -0.86743672   0.03246787
6
# step=   446 energy=-149.92564694
O    -3.85609988   0.49585584  -0.32170757
H    -4.75487391   0.69666828  -0.66724472
H    -3.67047372  -0.16250789  -1.05700979
O     0.22452726  -1.09927313   0.36168255
H     0.06292747  -0.59246327   1.20915622
H     1.15112259  -0.87519850   0.03428993
6
# step=   447 energy=-149.92595859
O    -3.85799257   0.49548132  -0.32334408
H    -4.75282239   0.70102035  -0.65758934
H    -3.67042233  -0.15192389  -1.05543733
O     0.22762227  -1.09854189   0.36268378
H     0.05369673  -0.60626623   1.20312922
H     1.13901321  -0.88203902   0.03925359
6
# step=   448 energy=-149.92561344
O    -3.85985211   0.49498602  -0.32511980
H    -4.75350777   0.70751244  -0.64694057
H    -3.66817005  -0.14152765  -1.05261392
O     0.23057394  -1.09796450   0.36356791
H     0.04723185  -0.61921851   1.19632503
H     1.12643707  -0.88728862   0.04685116
6
# step=   449 energy=-149.92472789
O    -3.86165587   0.49442672  -0.32694525
H    -4.75730822   0.71605981  -0.63563105
H    -3.66371140  -0.13213931  -1.04964418
O     0.23324014  -1.09763543   0.36429420
H     0.04337705  -0.63047498   1.19011255
H     1.11583482  -0.89028409   0.05637083
6
# step=   450 energy=-149.92392372
O    -3.86340965   0.49386671  -0.32873878
H    -4.76405975   0.72638685  -0.62388814
H    -3.65715022  -0.12448563  -1.04762376
O     0.23549105  -1.09763795   0.36482847
H     0.04185511  -0.63929632   1.18581664
H     1.10959296  -0.89044301   0.06705149
6
# step=   451 energy=-149.92398642
O    -3.86514285   0.49336651  -0.33043603
H    -4.77308195   0.73803015  -0.61185753
H    -3.64873168  -0.11906020  -1.04745552
O     0.23723457  -1.09803144   0.36514341
H     0.04234807  -0.64514733   1.18450574
H     1.10953855  -0.88736164   0.07828053
6
# step=   452 energy=-149.92525617
O    -3.86689533   0.49297422  -0.33199502
H    -4.78330459   0.75036216  -0.59966747
H    -3.63888131  -0.11600781  -1.04967907
O     0.23844047  -1.09883796   0.36521991
H     0.04457417  -0.64778521   1.18678413
H     1.11642991  -0.88092726   0.08975541
6
# step=   453 energy=-149.92725308
O    -3.86870331   0.49271726  -0.33339944
H    -4.79347355   0.76265781  -0.58748151
H    -3.62821687  -0.11506048  -1.05436185
O     0.23915539  -1.10003253   0.36505298
H     0.04833136  -0.64733067   1.19263906
H     1.12966617  -0.87140029   0.10153907
6
# step=   454 energy=-149.92896291
O    -3.87059029   0.49259872  -0.33465874
H    -4.80239319   0.77420196  -0.57551074
H    -3.61750081  -0.11557108  -1.06111203
O     0.23949633  -1.10154504   0.36465928
H     0.05350038  -0.64427288   1.20143016
H     1.14743745  -0.85939489   0.11397519
6
# step=   455 energy=-149.92953694
O    -3.87256167   0.49260060  -0.33580081
H    -4.80911522   0.78437798  -0.56401367
H    -3.60756322  -0.11664583  -1.06920778
O     0.23962291  -1.10327264   0.36408098
H     0.06000646  -0.63938773   1.21203499
H     1.16723251  -0.84576978   0.12749517
6
# step=   456 energy=-149.92878440
O    -3.87460313   0.49269114  -0.33686114
H    -4.81304665   0.79272145  -0.55328908
H    -3.59921796  -0.11731513  -1.07777884
O     0.23970498  -1.10509655   0.36338292
H     0.06775895  -0.63360928   1.22308117
H     1.18641657  -0.83148844   0.14242966
6
# step=   457 energy=-149.92716845
O    -3.87668270   0.49283269  -0.33787272
H    -4.81399336   0.79894821  -0.54366010
H    -3.59318411  -0.11668866  -1.08598116
O     0.23989805  -1.10689825   0.36264415
H     0.07659894  -0.62789532   1.23318867
H     1.20267343  -0.81749320   0.15890114
6
# step=   458 energy=-149.92546321
O    -3.87875465   0.49298820  -0.33885887
H    -4.81215759   0.80296307  -0.53545452
H    -3.59002449  -0.11406764  -1.09313152
O     0.24032945  -1.10857220   0.36194694
H     0.08627047  -0.62311488   1.24116809
H     1.21425526  -0.80461444   0.17680014
6
# step=   459 energy=-149.92435661
O    -3.88076395   0.49312574  -0.33982883
H    -4.80810186   0.80485196  -0.52898612
H    -3.59010632  -0.10901139  -1.09879390
O     0.24109250  -1.11003386   0.36136698
H     0.09641253  -0.61997090   1.24615246
H     1.22007941  -0.79351765   0.19580847
6
# step=   460 energy=-149.92417838
O    -3.88265038   0.49322173  -0.34077522
H    -4.80268651   0.80486055  -0.52453856
H    -3.59357853  -0.10137353  -1.10282644
O     0.24224430  -1.11122353   0.36096640
H     0.10655745  -0.61895606   1.24766988
H     1.21974546  -0.78468005   0.21542768
6
# step=   461 energy=-149.92480346
O    -3.88435340   0.49326364  -0.34167275
H    -4.79697751   0.80336296  -0.52234318
H    -3.60035205  -0.09132504  -1.10540650
O     0.24380301  -1.11210836   0.36078883
H     0.11613124  -0.62032593   1.24568538
H     1.21354503  -0.77837436   0.23499837
6
# step=   462 energy=-149.92572673
O    -3.88582167   0.49325280  -0.34247995
H    -4.79210327   0.80081582  -0.52254146
H    -3.61009082  -0.07935289  -1.10704075
O     0.24574545  -1.11268552   0.36085522
H     0.12447339  -0.62407986   1.24062551
H     1.20248069  -0.77463744   0.25374369
6
# step=   463 energy=-149.92629833
O    -3.88702523   0.49320610  -0.34314429
H    -4.78906486   0.79769065  -0.52514718
H    -3.62223986  -0.06620982  -1.10853811
O     0.24800824  -1.11298438   0.36116131
H     0.13087688  -0.62996396   1.23336066
H     1.18824026  -0.77324246   0.27084373
6
# step=   464 energy=-149.92607284
O    -3.88796431   0.49315498  -0.34360991
H    -4.78854950   0.79439952  -0.53002266
H    -3.63609144  -0.05281598  -1.11092101
O     0.25049315  -1.11306444   0.36167826
H     0.13463284  -0.63750579   1.22512968
H     1.17308708  -0.77370437   0.28551169
6
# step=   465 energy=-149.92514076
O    -3.88867198   0.49314014  -0.34382835
H    -4.79080219   0.79123838  -0.53687097
H    -3.65087821  -0.04011650  -1.11526483
O     0.25307875  -1.11300789   0.36235691
H     0.13508289  -0.64608151   1.21740069
H     1.15962969  -0.77533433   0.29706955
6
# step=   466 energy=-149.92420159
O    -3.88920961   0.49320226  -0.34377185
H    -4.79559433   0.78836468  -0.54524661
H    -3.66587749  -0.02890925  -1.12247499
O     0.25564032  -1.11290599   0.36313593
H     0.13168596  -0.65501694   1.21166199
H     1.15043502  -0.77735673   0.30502568
6
# step=   467 energy=-149.92417023
O    -3.88965636   0.49337073  -0.34344635
H    -4.80229312   0.78581347  -0.55458083
H    -3.68049328  -0.01968739  -1.13304456
O     0.25807586  -1.11284027   0.36395356
H     0.12410061  -0.66370989   1.20915921
H     1.14751421  -0.77908136   0.30914211
6
# step=   468 energy=-149.92546329
O    -3.89009636   0.49365452  -0.34290037
H    -4.80999473   0.78354114  -0.56421133
H    -3.69428228  -0.01255136  -1.14685870
O     0.26032931  -1.11286339   0.36476008
H     0.11228330  -0.67174385   1.21062406
H     1.15180700  -0.78008198   0.30948207
6
# step=   469 energy=-149.92755767
O    -3.89060779   0.49403879  -0.34222473
H    -4.81769231   0.78147362  -0.57343307
H    -3.70694812  -0.00720735  -1.16314244
O     0.26240427  -1.11298663   0.36552883
H     0.09656740  -0.67897343   1.21606693
H     1.16286982  -0.78030539   0.30643440
6
# step=   470 energy=-149.92931266
O    -3.89125584   0.49448930  -0.34153961
H    -4.82445511   0.77954498  -0.58157534
H    -3.71832405  -0.00305986  -1.18061554
O     0.26436054  -1.11318119   0.36626184
H     0.07765131  -0.68554696   1.22475006
H     1.17899305  -0.78004585   0.30067653
6
# step=   471 energy=-149.92977811
O    -3.89208899   0.49496136  -0.34097486
H    -4.82956183   0.77772592  -0.58806128
H    -3.72832545   0.00062478  -1.19776207
O     0.26629022  -1.11339225   0.36698558
H     0.05651147  -0.69183455   1.23536704
H     1.19769655  -0.77979988   0.29307619
6
# step=   472 energy=-149.92876512
O    -3.89313753   0.49540887  -0.34065103
H    -4.83257500   0.77604070  -0.59244112
H    -3.73689967   0.00455731  -1.21310025
O     0.26828821  -1.11355780   0.36773985
H     0.03428295  -0.69830247   1.24633364
H     1.21632122  -0.78009069   0.28457795
6
# step=   473 energy=-149.92683270
O    -3.89441340   0.49579104  -0.34066518
H    -4.83337152   0.77457360  -0.59440813
H    -3.74399563   0.00931132  -1.22539260
O     0.27043072  -1.11362450   0.36856551
H     0.01213375  -0.70539130   1.25608139
H     1.23249667  -0.78133616   0.27610544
6
# step=   474 energy=-149.92487929
O    -3.89591113   0.49607626  -0.34108245
H    -4.83214076   0.77346780  -0.59380100
H    -3.74955200   0.01526209  -1.23377885
O     0.27276523  -1.11355726   0.36949474
H    -0.00884437  -0.71343061   1.26328205
H     1.24441202  -0.78378131   0.26849254
6
# step=   475 energy=-149.92368398
O    -3.89760965   0.49624397  -0.34193249
H    -4.82935612   0.77291852  -0.59059465
H    -3.75349462   0.02256380  -1.23784147
O     0.27530850  -1.11334312   0.37054504
H    -0.02771163  -0.72259456   1.26698055
H     1.25092136  -0.78747943   0.26244614
6
# step=   476 energy=-149.92360595
O    -3.89947382   0.49628538  -0.34320795
H    -4.82572436   0.77315950  -0.58488650
H    -3.75573601   0.03114221  -1.23762919
O     0.27804610  -1.11299203   0.37171534
H    -0.04371288  -0.73288025   1.26665426
H     1.25155730  -0.79229300   0.25853448
6
# step=   477 energy=-149.92448650
O    -3.90145568   0.49620445  -0.34486240
H    -4.82210957   0.77443684  -0.57688948
H    -3.75618213   0.04068844  -1.23367312
O     0.28092989  -1.11253689   0.37298289
H    -0.05629371  -0.74409167   1.26224681
H     1.24653849  -0.79789260   0.25717926
6
# step=   478 energy=-149.92573971
O    -3.90350118   0.49601931  -0.34681156
H    -4.81941017   0.77696671  -0.56691513
H    -3.75475287   0.05068069  -1.22698599
O     0.28388033  -1.11203248   0.37430315
H    -0.06515583  -0.75585006   1.25419589
H     1.23679293  -0.80376458   0.25863106
6
# step=   479 energy=-149.92661819
O    -3.90556207   0.49576209  -0.34894227
H    -4.81839628   0.78088748  -0.55533190
H    -3.75140207   0.06045053  -1.21898529
O     0.28679504  -1.11155225   0.37561316
H    -0.07031615  -0.76763418   1.24342068
H     1.22392735  -0.80923922   0.26295355
6
# step=   480 energy=-149.92659432
O    -3.90760589   0.49547611  -0.35112620
H    -4.81955579   0.78621640  -0.54252493
H    -3.74613563   0.06927886  -1.21132567
O     0.28955869  -1.11118327   0.37683499
H    -0.07212040  -0.77882378   1.23126491
H     1.21010752  -0.81353489   0.27003649
6
# step=   481 energy=-149.92571049
O    -3.90962083   0.49521003  -0.35323713
H    -4.82299301   0.79282091  -0.52887374
H    -3.73903833   0.07651976  -1.20564740
O     0.29205617  -1.11101884   0.37787966
H    -0.07121038  -0.78874794   1.21939275
H     1.19781684  -0.81582966   0.27963924
6
# step=   482 energy=-149.92465481
O    -3.91161436   0.49500917  -0.35517013
H    -4.82841119   0.80041636  -0.51474852
H    -3.73031181   0.08174081  -1.20327106
O     0.29419221  -1.11114724   0.37865348
H    -0.06843742  -0.79675022   1.20961273
H     1.18945543  -0.81537578   0.29146453
6
# step=   483 energy=-149.92436668
O    -3.91360539   0.49490628  -0.35685798
H    -4.83518230   0.80859171  -0.50052278
H    -3.72031790   0.08484123  -1.20491688
O     0.29591405  -1.11163650   0.37906897
H    -0.06471609  -0.80227496   1.20361473
H     1.18681818  -0.81165238   0.30524047
6
# step=   484 energy=-149.92533144
O    -3.91561175   0.49491495  -0.35827836
H    -4.84247260   0.81685155  -0.48659940
H    -3.70961466   0.08610192  -1.21054441
O     0.29722829  -1.11251726   0.37906193
H    -0.06084153  -0.80497064   1.20263854
H     1.19060458  -0.80452381   0.32075941
6
# step=   485 energy=-149.92713210
O    -3.91763995   0.49502799  -0.35945130
H    -4.84939393   0.82467466  -0.47341745
H    -3.69894738   0.08614616  -1.21937448
O     0.29820408  -1.11376944   0.37861318
H    -0.05732091  -0.80479828   1.20714014
H     1.20017663  -0.79433718   0.33785297
6
# step=   486 energy=-149.92871763
O    -3.91968302   0.49522126  -0.36042899
H    -4.85515955   0.83158952  -0.46141584
H    -3.68916489   0.08581440  -1.23010855
O     0.29895861  -1.11532213   0.37776390
H    -0.05428673  -0.80208995   1.21661719
H     1.21374218  -0.78187800   0.35633995
6
# step=   487 energy=-149.92915543
O    -3.92172229   0.49546118  -0.36127902
H    -4.85919755   0.83723229  -0.45099603
H    -3.68110773   0.08599764  -1.24124893
O     0.29962936  -1.11706731   0.37661372
H    -0.05154457  -0.79750604   1.22971562
H     1.22887719  -0.76820387   0.37596547
6
# step=   488 energy=-149.92820887
O    -3.92373026   0.49571205  -0.36206781
H    -4.86120706   0.84137544  -0.44249962
H    -3.67551093   0.08749226  -1.25138852
O     0.30034792  -1.11887975   0.37530307
H    -0.04872114  -0.79191453   1.24455210
H     1.24309696  -0.75444802   0.39636328
6
# step=   489 energy=-149.92637934
O    -3.92567405   0.49594145  -0.36284892
H    -4.86117142   0.84393619  -0.43619370
H    -3.67293455   0.09090531  -1.25941243
O     0.30122416  -1.12063618   0.37398839
H    -0.04543034  -0.78624554   1.25910220
H     1.25427500  -0.74165824   0.41706380
6
# step=   490 energy=-149.92453985
O    -3.92751908   0.49612353  -0.36365649
H    -4.85934042   0.84497068  -0.43226172
H    -3.67372426   0.09660843  -1.26461186
O     0.30234016  -1.12222958   0.37281919
H    -0.04139695  -0.78136654   1.27152660
H     1.26086482  -0.73069379   0.43753522
6
# step=   491 energy=-149.92347565
O    -3.92923235   0.49624083  -0.36450219
H    -4.85618948   0.84465692  -0.43080021
H    -3.67799634   0.10472427  -1.26673540
O     0.30374971  -1.12357721   0.37192221
H    -0.03652375  -0.77800120   1.28037724
H     1.26197234  -0.72217596   0.45722942
6
# step=   492 energy=-149.92355560
O    -3.93078442   0.49628550  -0.36537318
H    -4.85236323   0.84327035  -0.43181749
H    -3.68563090   0.11512132  -1.26600680
O     0.30547808  -1.12462327   0.37139310
H    -0.03092166  -0.77669024   1.28469301
H     1.25735778  -0.71647517   0.47560392
6
# step=   493 energy=-149.92460799
O    -3.93215168   0.49626052  -0.36623082
H    -4.84860396   0.84115628  -0.43522163
H    -3.69625722   0.12740453  -1.26313320
O     0.30751917  -1.12533993   0.37129107
H    -0.02492499  -0.77776868   1.28405027
H     1.24744684  -0.71369951   0.49213193
6
# step=   494 energy=-149.92601074
O    -3.93332291   0.49618062  -0.36701377
H    -4.84564821   0.83869139  -0.44080474
H    -3.70926553   0.14094359  -1.25927722
O     0.30983506  -1.12573110   0.37163266
H    -0.01908441  -0.78134269   1.27861159
H     1.23334428  -0.71366248   0.50635947
6
# step=   495 energy=-149.92698516
O    -3.93430563   0.49607110  -0.36764692
H    -4.84410597   0.83623223  -0.44824650
H    -3.72387629   0.15496048  -1.25593640
O     0.31236035  -1.12583468   0.37238854
H    -0.01413834  -0.78728457   1.26913084
H     1.21678553  -0.71586880   0.51797757
6
# step=   496 energy=-149.92700438
O    -3.93512723   0.49596369  -0.36805524
H    -4.84436148   0.83406809  -0.45713048
H    -3.73924172   0.16864988  -1.25471516
O     0.31500871  -1.12572010   0.37348501
H    -0.01097423  -0.79525027   1.25690066
H     1.20001425  -0.71954313   0.52686004
6
# step=   497 energy=-149.92613503
O    -3.93583148   0.49588983  -0.36818252
H    -4.84651798   0.83239010  -0.46696524
H    -3.75455840   0.18131765  -1.25700424
O     0.31768328  -1.12548079   0.37481085
H    -0.01056701  -0.80471825   1.24363694
H     1.18555495  -0.72371207   0.53307058
6
# step=   498 energy=-149.92507576
O    -3.93647226   0.49587323  -0.36801131
H    -4.85039560   0.83128145  -0.47720978
H    -3.76916611   0.19250876  -1.26363432
O     0.32029326  -1.12522036   0.37623172
H    -0.01387501  -0.81505920   1.23127002
H     1.17584123  -0.72735487   0.53683881
6
# step=   499 energy=-149.92475217
O    -3.93710691   0.49592465  -0.36757677
H    -4.85557698   0.83072773  -0.48729932
H    -3.78259770   0.20207660  -1.27462397
O     0.32277386  -1.12503283   0.37761321
H    -0.02168352  -0.82563846   1.22162886
H     1.17272744  -0.72961304   0.53850280
6
# step=   500 energy=-149.92564025
O    -3.93779064   0.49604100  -0.36696785
H    -4.86148061   0.83064115  -0.49666539
H    -3.79456231   0.21016188  -1.28912378
O     0.32510152  -1.12498153   0.37884822
H    -0.03440211  -0.83593148   1.21605755
H     1.17701133  -0.73000106   0.53843698
6
# step=   501 energy=-149.92732960
O    -3.93857272   0.49620853  -0.36631424
H    -4.86744958   0.83089017  -0.50476312
H    -3.80489651   0.21710509  -1.30558804
O     0.32729737  -1.12508462   0.37988161
H    -0.05186993  -0.84562575   1.21506231
H     1.18816208  -0.72852998   0.53700222
6
# step=   502 energy=-149.92877268
O    -3.93949462   0.49640828  -0.36576259
H    -4.87285291   0.83133069  -0.51111490
H    -3.81352484   0.22333809  -1.32212722
O     0.32941737  -1.12531486   0.38072146
H    -0.07328645  -0.85467131   1.21815819
H     1.20444075  -0.72567019   0.53453344
6
# step=   503 energy=-149.92904232
O    -3.94058842   0.49662129  -0.36545179
H    -4.87717402   0.83183531  -0.51534237
H    -3.82042432   0.22928226  -1.33688515
O     0.33153090  -1.12561428   0.38142908
H    -0.09731450  -0.86323726   1.22402834
H     1.22337365  -0.72217044   0.53135383
6
# step=   504 energy=-149.92793477
O    -3.94187518   0.49683171  -0.36549490
H    -4.88007052   0.83231595  -0.51717936
H    -3.82559686   0.23527757  -1.34831727
O     0.33369956  -1.12591492   0.38209435
H    -0.12230132  -0.87160171   1.23090150
H     1.24231921  -0.71883845   0.52779529
6
# step=   505 energy=-149.92600601
O    -3.94336389   0.49702806  -0.36596908
H    -4.88140674   0.83273805  -0.51647340
H    -3.82905479   0.24154877  -1.35535177
O     0.33596516  -1.12615639   0.38280952
H    -0.14653400  -0.88004024   1.23696187
H     1.25891566  -0.71637120   0.52420762
6
# step=   506 energy=-149.92416861
O    -3.94505151   0.49720336  -0.36691151
H    -4.88126138   0.83312648  -0.51317939
H    -3.83081443   0.24819783  -1.35746177
O     0.33834725  -1.12629635   0.38365027
H    -0.16845426  -0.88875262   1.24065658
H     1.27133875  -0.71526178   0.52095574
6
# step=   507 energy=-149.92320479
O    -3.94692399   0.49735502  -0.36831874
H    -4.87991209   0.83356308  -0.50734862
H    -3.83089158   0.25520794  -1.35468440
O     0.34084508  -1.12631452   0.38466552
H    -0.18679159  -0.89783002   1.24086236
H     1.27839830  -0.71576701   0.51841353
6
# step=   508 energy=-149.92344203
O    -3.94895613   0.49748455  -0.37014561
H    -4.87780115   0.83417565  -0.49912495
H    -3.82929926   0.26244453  -1.34762351
O     0.34343787  -1.12621298   0.38587238
H    -0.20061266  -0.90723994   1.23694959
H     1.27954580  -0.71790344   0.51696192
6
# step=   509 energy=-149.92465706
O    -3.95111103   0.49759770  -0.37230260
H    -4.87548361   0.83511707  -0.48875661
H    -3.82605576   0.26965674  -1.33745459
O     0.34608285  -1.12601586   0.38725263
H    -0.20935457  -0.91681825   1.22881796
H     1.27488526  -0.72144293   0.51698407
6
# step=   510 energy=-149.92620031
O    -3.95334603   0.49770465  -0.37466106
H    -4.87354491   0.83653608  -0.47658966
H    -3.82119602   0.27651116  -1.32585972
O     0.34872033  -1.12576838   0.38875312
H    -0.21290393  -0.92629197   1.21691771
H     1.26519658  -0.72591365   0.51885003
6
# step=   511 energy=-149.92730075
O    -3.95562201   0.49781940  -0.37706907
H    -4.87249917   0.83854513  -0.46303776
H    -3.81477917   0.28265339  -1.31483056
O     0.35128304  -1.12553420   0.39028928
H    -0.21165432  -0.93531554   1.20223111
H     1.25189665  -0.73062398   0.52290510
6
# step=   512 energy=-149.92743929
O    -3.95790870   0.49795725  -0.37937278
H    -4.87269973   0.84119203  -0.44855861
H    -3.80690865   0.28778083  -1.30635738
O     0.35370489  -1.12539119   0.39174879
H    -0.20651136  -0.94349713   1.18622851
H     1.23692119  -0.73471067   0.52946273
6
# step=   513 energy=-149.92663437
O    -3.96018555   0.49813094  -0.38144148
H    -4.87428353   0.84444262  -0.43363959
H    -3.79777294   0.29172286  -1.30204279
O     0.35593176  -1.12542425   0.39299768
H    -0.19884492  -0.95042421   1.17078220
H     1.22250260  -0.73722624   0.53879240
6
# step=   514 energy=-149.92548197
O    -3.96243900   0.49834630  -0.38319095
H    -4.87716098   0.84818015  -0.41878589
H    -3.78769699   0.29450910  -1.30273777
O     0.35793507  -1.12571408   0.39389301
H    -0.19035170  -0.95570101   1.15798767
H     1.21081308  -0.73728169   0.55109439
6
# step=   515 energy=-149.92485491
O    -3.96465752   0.49859960  -0.38459639
H    -4.88104896   0.85222035  -0.40450941
H    -3.77718029   0.29639465  -1.30834285
O     0.35972331  -1.12632167   0.39430527
H    -0.18279368  -0.95900498   1.14984940
H     1.20351081  -0.73423479   0.56645211
6
# step=   516 energy=-149.92533365
O    -3.96682633   0.49887770  -0.38568881
H    -4.88552992   0.85633485  -0.39132171
H    -3.76689767   0.29782503  -1.31786007
O     0.36134345  -1.12727147   0.39414959
H    -0.17763362  -0.96016156   1.14784589
H     1.20132775  -0.72787604   0.58475475
6
# step=   517 energy=-149.92671818
O    -3.96892477   0.49916103  -0.38653841
H    -4.89012013   0.86027828  -0.37971962
H    -3.75764538   0.29935265  -1.32966111
O     0.36286868  -1.12853909   0.39341795
H    -0.17567240  -0.95922356   1.15248363
H     1.20387597  -0.71853641   0.60561575
6
# step=   518 energy=-149.92809651
O    -3.97092969   0.49942816  -0.38723345
H    -4.89434314   0.86382098  -0.37014519
H    -3.75023128   0.30153631  -1.34187321
O     0.36437885  -1.13005189   0.39219506
H    -0.17685958  -0.95651340   1.16306350
H     1.20978793  -0.70704211   0.62836051
6
# step=   519 energy=-149.92851143
O    -3.97282054   0.49966003  -0.38786064
H    -4.89779479   0.86677801  -0.36294686
H    -3.74535988   0.30485591  -1.35274739
O     0.36594312  -1.13170359   0.39064501
H    -0.18040239  -0.95258734   1.17783716
H     1.21713621  -0.69452766   0.65209852
6
# step=   520 energy=-149.92763830
O    -3.97458224   0.49984238  -0.38849098
H    -4.90018697   0.86902662  -0.35836129
H    -3.74355430   0.30966019  -1.36090820
O     0.36761124  -1.13337487   0.38897645
H    -0.18509516  -0.94813725   1.19445923
H     1.22391300  -0.68220770   0.67583409
6
# step=   521 energy=-149.92592968
O    -3.97620628   0.49996654  -0.38917205
H    -4.90137165   0.87051428  -0.35650811
H    -3.74511651   0.31614613  -1.36548341
O     0.36941351  -1.13495221   0.38740379
H    -0.18967869  -0.94387803   1.21049372
H     1.22839155  -0.67118971   0.69858130
6
# step=   522 energy=-149.92425140
O    -3.97769099   0.50002937  -0.38992481
H    -4.90134915   0.87126004  -0.35739147
H    -3.75011544   0.32435999  -1.36615384
O     0.37136479  -1.13634078   0.38611739
H    -0.19309798  -0.94045881   1.22379559
H     1.22932223  -0.66235655   0.71945973
6
# step=   523 energy=-149.92337872
O    -3.97904126   0.50003266  -0.39074268
H    -4.90026336   0.87135027  -0.36090516
H    -3.75839115   0.33420781  -1.36316050
O     0.37346796  -1.13747081   0.38526694
H    -0.19463235  -0.93841283   1.23271456
H     1.22600030  -0.65631279   0.73775433
6
# step=   524 energy=-149.92364900
O    -3.98026690   0.49998264  -0.39159104
H    -4.89838852   0.87093067  -0.36683263
H    -3.76955740   0.34546017  -1.35729499
O     0.37571372  -1.13829889   0.38495482
H    -0.19393849  -0.93813876   1.23616385
H     1.21827579  -0.65337010   0.75293470
6
# step=   525 energy=-149.92486349
O    -3.98138113   0.49988936  -0.39240853
H    -4.89610911   0.87019607  -0.37483568
H    -3.78300083   0.35775519  -1.34986917
O     0.37807803  -1.13880866   0.38523168
H    -0.19106647  -0.93988918   1.23365223
H     1.20656650  -0.65353135   0.76467357
6
# step=   526 energy=-149.92641933
O    -3.98240149   0.49976568  -0.39311503
H    -4.89388143   0.86937328  -0.38445940
H    -3.79792788   0.37064091  -1.34259309
O     0.38052436  -1.13901378   0.38609092
H    -0.18647013  -0.94375759   1.22532308
H     1.19185397  -0.65646484   0.77290650
6
# step=   527 energy=-149.92759681
O    -3.98334996   0.49962517  -0.39362725
H    -4.89217637   0.86869489  -0.39516355
H    -3.81346651   0.38365021  -1.33731618
O     0.38300970  -1.13895893   0.38746708
H    -0.18099924  -0.94967717   1.21195678
H     1.17562684  -0.66150571   0.77787714
6
# step=   528 energy=-149.92787845
O    -3.98425081   0.49947992  -0.39387955
H    -4.89141607   0.86836980  -0.40636009
H    -3.82877938   0.39637164  -1.33566417
O     0.38549038  -1.13871686   0.38923907
H    -0.17587051  -0.95743054   1.19492978
H     1.15977329  -0.66769794   0.78013353
6
# step=   529 energy=-149.92719605
O    -3.98512833   0.49933905  -0.39384586
H    -4.89191205   0.86855481  -0.41745017
H    -3.84316104   0.40850081  -1.33865049
O     0.38792939  -1.13838113   0.39123979
H    -0.17259536  -0.96667114   1.17611440
H     1.14639201  -0.67388909   0.78047460
6
# step=   530 energy=-149.92602753
O    -3.98600637   0.49920889  -0.39355484
H    -4.89381345   0.86933133  -0.42785939
H    -3.85609516   0.41985965  -1.34639756
O     0.39030528  -1.13805305   0.39327639
H    -0.17282123  -0.97696593   1.15766784
H     1.13748780  -0.67889648   0.77983574
6
# step=   531 energy=-149.92521844
O    -3.98690977   0.49909491  -0.39309075
H    -4.89707579   0.87069198  -0.43706613
H    -3.86725787   0.43037841  -1.35809288
O     0.39261945  -1.13782297   0.39516308
H    -0.17805282  -0.98786359   1.14167606
H     1.13457209  -0.68173568   0.77911693
6
# step=   532 energy=-149.92544670
O    -3.98786593   0.49900406  -0.39257919
H    -4.90145795   0.87253983  -0.44461734
H    -3.87647636   0.44005066  -1.37219113
O     0.39489539  -1.13775071   0.39676052
H    -0.18926959  -0.99897137   1.12970024
H     1.13827318  -0.68185076   0.77899832
6
# step=   533 energy=-149.92663019
O    -3.98890464   0.49894639  -0.39216423
H    -4.90654931   0.87470097  -0.45013788
H    -3.88367638   0.44888673  -1.38675915
O     0.39716727  -1.13785275   0.39800781
H    -0.20654585  -1.01000896   1.12237379
H     1.14810996  -0.67925499   0.77981732
6
# step=   534 energy=-149.92789873
O    -3.99005659   0.49893466  -0.39198383
H    -4.91183140   0.87695166  -0.45334732
H    -3.88885213   0.45689399  -1.39985458
O     0.39946524  -1.13810306   0.39893276
H    -0.22887969  -1.02082206   1.11924724
H     1.16256534  -0.67450715   0.78156317
6
# step=   535 energy=-149.92827940
O    -3.99135100   0.49898269  -0.39215058
H    -4.91676297   0.87905541  -0.45407203
H    -3.89205041   0.46407781  -1.40983775
O     0.40180526  -1.13844750   0.39963285
H    -0.25437188  -1.03134811   1.11900140
H     1.17945764  -0.66852611   0.78398329
6
# step=   536 energy=-149.92743202
O    -3.99281238   0.49910322  -0.39274061
H    -4.92086148   0.88079847  -0.45224331
H    -3.89335513   0.47044552  -1.41555644
O     0.40418678  -1.13882338   0.40023785
H    -0.28065099  -1.04155424   1.11990263
H     1.19641776  -0.66234505   0.78673256
6
# step=   537 energy=-149.92580205
O    -3.99445764   0.49930589  -0.39378923
H    -4.92376644   0.88201757  -0.44788853
H    -3.89287346   0.47601149  -1.41642680
O     0.40659695  -1.13917523   0.40087417
H    -0.30533112  -1.05138984   1.12024988
H     1.21128251  -0.65690762   0.78949768
6
# step=   538 energy=-149.92423413
O    -3.99629434   0.49959579  -0.39529027
H    -4.92527984   0.88261792  -0.44112000
H    -3.89072364   0.48080301  -1.41245463
O     0.40901697  -1.13946355   0.40164210
H    -0.32634930  -1.06076966   1.11866454
H     1.22233125  -0.65294510   0.79207208
6
# step=   539 energy=-149.92346421
O    -3.99831988   0.49997252  -0.39719696
H    -4.92538320   0.88258156  -0.43212535
H    -3.88702415   0.48486451  -1.40422760
O     0.41142646  -1.13966773   0.40260570
H    -0.34213946  -1.06957607   1.11421523
H     1.22838201  -0.65092456   0.79438917
6
# step=   540 energy=-149.92379663
O    -4.00051950   0.50042924  -0.39942185
H    -4.92423614   0.88196806  -0.42117028
H    -3.88188937   0.48825873  -1.39289678
O     0.41380348  -1.13978588   0.40378931
H    -0.35168622  -1.07766222   1.10644733
H     1.22880845  -0.65103623   0.79653166
6
# step=   541 energy=-149.92503721
O    -4.00286443   0.50095188  -0.40183822
H    -4.92216215   0.88091049  -0.40861069
H    -3.87543524   0.49107000  -1.38012441
O     0.41612352  -1.13983396   0.40517591
H    -0.35456154  -1.08485979   1.09539019
H     1.22355403  -0.65318545   0.79873328
6
# step=   542 energy=-149.92663048
O    -4.00531530   0.50151991  -0.40429251
H    -4.91961335   0.87960245  -0.39487985
H    -3.86778385   0.49341390  -1.36790854
O     0.41836412  -1.13984496   0.40670810
H    -0.35099157  -1.09100632   1.08155025
H     1.21314827  -0.65698708   0.80137995
6
# step=   543 energy=-149.92790103
O    -4.00782779   0.50210833  -0.40662762
H    -4.91711048   0.87827432  -0.38045626
H    -3.85907485   0.49544255  -1.35826177
O     0.42051214  -1.13986706   0.40829151
H    -0.34189787  -1.09597294   1.06588392
H     1.19867419  -0.66178218   0.80500318
6
# step=   544 energy=-149.92829942
O    -4.01035563   0.50269004  -0.40870996
H    -4.91517187   0.87716448  -0.36583850
H    -3.84950201   0.49734159  -1.35281035
O     0.42257005  -1.13996005   0.40979906
H    -0.32889345  -1.09967990   1.04975943
H     1.18167722  -0.66668394   0.81025510
6
# step=   545 energy=-149.92763115
O    -4.01285174   0.50323817  -0.41045391
H    -4.91424143   0.87648966  -0.35152759
H    -3.83936753   0.49932156  -1.35241987
O     0.42456162  -1.14018929   0.41107947
H    -0.31420611  -1.10210494   1.03487777
H     1.16399751  -0.67066628   0.81785210
6
# step=   546 energy=-149.92625667
O    -4.01526952   0.50372863  -0.41183558
H    -4.91462419   0.87641737  -0.33801214
H    -3.82912507   0.50160511  -1.35699017
O     0.42653477  -1.14061623   0.41197468
H    -0.30045494  -1.10328658   1.02309509
H     1.14750066  -0.67271220   0.82847304
6
# step=   547 energy=-149.92506323
O    -4.01756573   0.50414244  -0.41288979
H    -4.91643857   0.87704434  -0.32575571
H    -3.81937987   0.50441048  -1.36551536
O     0.42855636  -1.14128586   0.41234911
H    -0.29021980  -1.10332310   1.01610338
H     1.13372851  -0.67201503   0.84260994
6
# step=   548 energy=-149.92494065
O    -4.01970411   0.50446734  -0.41369213
H    -4.91959348   0.87838428  -0.31519059
H    -3.81083942   0.50793287  -1.37637020
O     0.43069511  -1.14221359   0.41212691
H    -0.28545350  -1.10237085   1.01500214
H     1.12357086  -0.66818421   0.86039351
6
# step=   549 energy=-149.92600973
O    -4.02165794   0.50469841  -0.41433500
H    -4.92379211   0.88036543  -0.30671496
H    -3.80423196   0.51232410  -1.38768008
O     0.43299636  -1.14337581   0.41132487
H    -0.28694210  -1.10064710   1.01990461
H     1.11709188  -0.66138193   0.88144384
6
# step=   550 energy=-149.92742687
O    -4.02341374   0.50483816  -0.41490718
H    -4.92856942   0.88284104  -0.30066880
H    -3.80020361   0.51767868  -1.39766877
O     0.43546520  -1.14470993   0.41006282
H    -0.29409087  -1.09843126   1.02979349
H     1.11358096  -0.65231806   0.90484514
6
# step=   551 energy=-149.92809440
O    -4.02497483   0.50489572  -0.41548050
H    -4.93336598   0.88561551  -0.29729800
H    -3.79922708   0.52403453  -1.40492612
O     0.43806951  -1.14612669   0.40854017
H    -0.30519751  -1.09604945   1.04276623
H     1.11181619  -0.64208306   0.92929451
6
# step=   552 energy=-149.92752547
O    -4.02636011   0.50488468  -0.41610256
H    -4.93761466   0.88847738  -0.29673436
H    -3.80155494   0.53138127  -1.40855343
O     0.44075539  -1.14752750   0.40699153
H    -0.31803304  -1.09384465   1.05652495
H     1.11041855  -0.63190674   0.95333067
6
# step=   553 energy=-149.92607440
O    -4.02759994   0.50482051  -0.41679415
H    -4.94082053   0.89123072  -0.29898702
H    -3.80720811   0.53967144  -1.40821443
O     0.44346380  -1.14882003   0.40564402
H    -0.33039924  -1.09214438   1.06884453
H     1.10814660  -0.62294346   0.97555023
6
# step=   554 energy=-149.92455824
O    -4.02873159   0.50471806  -0.41754946
H    -4.94262590   0.89372134  -0.30393944
H    -3.81598405   0.54883406  -1.40413482
O     0.44614188  -1.14992858   0.40468855
H    -0.34048514  -1.09123622   1.07787337
H     1.10407097  -0.61612883   0.99476683
6
# step=   555 energy=-149.92373634
O    -4.02979466   0.50458945  -0.41833778
H    -4.94285678   0.89585560  -0.31134932
H    -3.82747519   0.55878714  -1.39707237
O     0.44874761  -1.15079926   0.40426598
H    -0.34702073  -1.09135562   1.08226100
H     1.09764591  -0.61210810   1.01010083
6
# step=   556 energy=-149.92397860
O    -4.03082623   0.50444253  -0.41910631
H    -4.94155265   0.89761081  -0.32084414
H    -3.84108633   0.56944071  -1.38826101
O     0.45124872  -1.15140111   0.40446267
H    -0.34930920  -1.09268225   1.08118114
H     1.08872884  -0.61120991   1.02101358
6
# step=   557 energy=-149.92518218
O    -4.03185605   0.50428017  -0.41978658
H    -4.93898313   0.89903936  -0.33191323
H    -3.85605765   0.58069162  -1.37930078
O     0.45362030  -1.15172676   0.40530732
H    -0.34723506  -1.09533615   1.07433847
H     1.07758835  -0.61342735   1.02733500
6
# step=   558 energy=-149.92686045
O    -4.03290371   0.50410038  -0.42030782
H    -4.93563802   0.90026684  -0.34392750
H    -3.87153503   0.59242845  -1.37193013
O     0.45584804  -1.15179416   0.40676730
H    -0.34128717  -1.09937433   1.06198491
H     1.06489140  -0.61839840   1.02931225
6
# step=   559 energy=-149.92831613
O    -4.03397765   0.50389793  -0.42061594
H    -4.93217399   0.90147654  -0.35619069
H    -3.88667817   0.60453442  -1.36768890
O     0.45793416  -1.15164681   0.40874887
H    -0.33256759  -1.10479426   1.04491116
H     1.05165618  -0.62541257   1.02763302
6
# step=   560 energy=-149.92886990
O    -4.03507610   0.50366799  -0.42069231
H    -4.92932138   0.90287699  -0.36799709
H    -3.90075586   0.61686836  -1.36756813
O     0.45990167  -1.15135095   0.41110206
H    -0.32276600  -1.11154187   1.02440494
H     1.03917461  -0.63345410   1.02339566
6
# step=   561 energy=-149.92818367
O    -4.03619108   0.50341079  -0.42056558
H    -4.92776269   0.90465618  -0.37868610
H    -3.91320424   0.62923533  -1.37176602
O     0.46179638  -1.15098904   0.41363280
H    -0.31406026  -1.11952209   1.00215279
H     1.02888287  -0.64129539   1.01801513
6
# step=   562 energy=-149.92659973
O    -4.03731552   0.50313581  -0.42031128
H    -4.92800350   0.90693171  -0.38768886
H    -3.92364345   0.64137047  -1.37964854
O     0.46368446  -1.15064870   0.41612681
H    -0.30886981  -1.12861281   0.98003636
H     1.02215420  -0.64766111   1.01304392
6
# step=   563 energy=-149.92513385
O    -4.03845080   0.50286362  -0.42003878
H    -4.93026860   0.90971008  -0.39455930
H    -3.93186070   0.65294977  -1.38992760
O     0.46564191  -1.15040746   0.41838670
H    -0.30941026  -1.13867724   0.95980151
H     1.02002231  -0.65145916   1.00990996
6
# step=   564 energy=-149.92482044
O    -4.03961132   0.50262496  -0.41987131
H    -4.93445242   0.91286691  -0.39898339
H    -3.93777388   0.66362067  -1.40096479
O     0.46773449  -1.15031757   0.42027345
H    -0.31710543  -1.14955932   0.94267489
H     1.02290146  -0.65202436   1.00963043
6
# step=   565 energy=-149.92582400
O    -4.04082362   0.50245742  -0.41992623
H    -4.94013087   0.91615241  -0.40077365
H    -3.94139309   0.67303470  -1.41107497
O     0.46999365  -1.15039679   0.42173507
H    -0.33205933  -1.16104759   0.92909636
H     1.03040327  -0.64928765   1.01260229
6
# step=   566 energy=-149.92726249
O    -4.04212222   0.50240017  -0.42029865
H    -4.94663385   0.91922666  -0.39986962
H    -3.94280244   0.68089318  -1.41878249
O     0.47240429  -1.15062904   0.42281074
H    -0.35288323  -1.17284057   0.91869387
H     1.04134687  -0.64379542   1.01855623
6
# step=   567 energy=-149.92799735
O    -4.04354501   0.50248784  -0.42105071
H    -4.95317126   0.92171954  -0.39633439
H    -3.94214979   0.68699899  -1.42301431
O     0.47491450  -1.15097492   0.42360746
H    -0.37705476  -1.18455531   0.91052381
H     1.05400446  -0.63654791   1.02670838
6
# step=   568 energy=-149.92752505
O    -4.04512761   0.50274568  -0.42220725
H    -4.95896669   0.92329091  -0.39033634
H    -3.93962713   0.69128273  -1.42319878
O     0.47745621  -1.15138609   0.42426080
H    -0.40158354  -1.19576482   0.90344661
H     1.06646026  -0.62874029   1.03602309
6
# step=   569 energy=-149.92618364
O    -4.04689808   0.50318622  -0.42375533
H    -4.96336643   0.92367822  -0.38212749
H    -3.93544875   0.69380955  -1.41929577
O     0.47996407  -1.15181700   0.42490037
H    -0.42362631  -1.20604749   0.89643355
H     1.07692616  -0.62152574   1.04546039
6
# step=   570 energy=-149.92476016
O    -4.04887329   0.50380727  -0.42564596
H    -4.96591581   0.92272924  -0.37202306
H    -3.92983139   0.69477729  -1.41178831
O     0.48238687  -1.15223191   0.42562927
H    -0.44087297  -1.21503207   0.88872413
H     1.08394335  -0.61585816   1.05414559
6
# step=   571 energy=-149.92398668
O    -4.05105660   0.50459114  -0.42779731
H    -4.96640432   0.92042089  -0.36038478
H    -3.92297851   0.69450820  -1.40164521
O     0.48469148  -1.15260783   0.42651580
H    -0.45170780  -1.22242525   0.87986778
H     1.08647297  -0.61241477   1.06145781
6
# step=   572 energy=-149.92423399
O    -4.05343496   0.50550433  -0.43009872
H    -4.96488738   0.91686958  -0.34761471
H    -3.91507584   0.69343279  -1.39024960
O     0.48686149  -1.15293489   0.42759099
H    -0.45524096  -1.22802178   0.86971638
H     1.08392015  -0.61156951   1.06706305
6
# step=   573 energy=-149.92543318
O    -4.05597585   0.50649839  -0.43241855
H    -4.96169326   0.91233580  -0.33415379
H    -3.90630153   0.69206089  -1.37926108
O     0.48889551  -1.15321597   0.42884773
H    -0.45132699  -1.23171401   0.85841033
H     1.07614776  -0.61337932   1.07092902
6
# step=   574 energy=-149.92713259
O    -4.05862826   0.50751426  -0.43462194
H    -4.95740368   0.90721135  -0.32045849
H    -3.89684189   0.69092892  -1.37035980
O     0.49081010  -1.15346633   0.43024136
H    -0.44061094  -1.23351360   0.84635567
H     1.06348763  -0.61757151   1.07334329
6
# step=   575 energy=-149.92862136
O    -4.06132719   0.50848990  -0.43659540
H    -4.95279117   0.90198249  -0.30696404
H    -3.88691796   0.69052676  -1.36490602
O     0.49264502  -1.15371279   0.43169240
H    -0.42455311  -1.23357009   0.83419145
H     1.04671743  -0.62355090   1.07491795
6
# step=   576 energy=-149.92914668
O    -4.06399831   0.50936841  -0.43826801
H    -4.94871646   0.89717676  -0.29406251
H    -3.87682932   0.69122787  -1.36363008
O     0.49446634  -1.15399165   0.43309110
H    -0.40540068  -1.23217465   0.82275168
H     1.02699844  -0.63043599   1.07656279
6
# step=   577 energy=-149.92830120
O    -4.06656408   0.51010467  -0.43962200
H    -4.94599593   0.89329882  -0.28209977
H    -3.86699251   0.69324656  -1.36646694
O     0.49636513  -1.15434477   0.43430632
H    -0.38605185  -1.22974477   0.81299867
H     1.00576383  -0.63713701   1.07941035
6
# step=   578 energy=-149.92645475
O    -4.06895268   0.51066986  -0.44068933
H    -4.94525698   0.89076242  -0.27138568
H    -3.85794368   0.69663590  -1.37260226
O     0.49844778  -1.15481358   0.43520302
H    -0.36971664  -1.22678021   0.80589147
H     0.98453620  -0.64249651   1.08466864
6
# step=   579 energy=-149.92475978
O    -4.07110874   0.51105293  -0.44153609
H    -4.94681380   0.88983234  -0.26221106
H    -3.85029454   0.70132181  -1.38070488
O     0.50081443  -1.15543104   0.43566998
H    -0.35932291  -1.22378657   0.80217312
H     0.96468072  -0.64549562   1.09339191
6
# step=   580 energy=-149.92438797
O    -4.07300130   0.51125936  -0.44224176
H    -4.95059877   0.89059170  -0.25486605
H    -3.84466127   0.70715226  -1.38923682
O     0.50352779  -1.15621247   0.43565257
H    -0.35678601  -1.22118659   0.80212026
H     0.94716267  -0.64548558   1.10620110
6
# step=   581 energy=-149.92552524
O    -4.07462511   0.51130795  -0.44288006
H    -4.95616182   0.89293801  -0.24965100
H    -3.84159237   0.71393419  -1.39672444
O     0.50658263  -1.15714676   0.43517885
H    -0.36243960  -1.21925902   0.80536034
H     0.93241391  -0.64237012   1.12302587
6
# step=   582 energy=-149.92719793
O    -4.07599984   0.51122732  -0.44350717
H    -4.96274262   0.89660425  -0.24684816
H    -3.84149077   0.72146209  -1.40196803
O     0.50989837  -1.15819338   0.43436533
H    -0.37492999  -1.21812615   0.81087232
H     0.92032747  -0.63666116   1.14300464
6
# step=   583 energy=-149.92815269
O    -4.07716815   0.51105141  -0.44415736
H    -4.96941750   0.90121303  -0.24666779
H    -3.84455428   0.72955491  -1.40418984
O     0.51334510  -1.15928946   0.43339342
H    -0.39169907  -1.21778818   0.81721857
H     0.91038014  -0.62934888   1.16465356
6
# step=   584 energy=-149.92781038
O    -4.07818796   0.51081427  -0.44484257
H    -4.97526360   0.90634465  -0.24920884
H    -3.85076005   0.73808149  -1.40309204
O     0.51677898  -1.16036236   0.43246944
H    -0.40974927  -1.21818177   0.82287326
H     0.90185708  -0.62165279   1.18618911
6
# step=   585 energy=-149.92648676
O    -4.07912328   0.51054543  -0.44555421
H    -4.97949725   0.91159727  -0.25443373
H    -3.85987490   0.74697322  -1.39885303
O     0.52006935  -1.16134195   0.43178809
H    -0.42628460  -1.21922851   0.82648341
H     0.89406017  -0.61477561   1.20585264
6
# step=   586 energy=-149.92499925
O    -4.08003616   0.51026667  -0.44626648
H    -4.98157530   0.91663345  -0.26215467
H    -3.87147955   0.75622980  -1.39208667
O     0.52311340  -1.16216987   0.43150857
H    -0.43907715  -1.22086224   0.82700667
H     0.88643657  -0.60972781   1.22215261
6
# step=   587 energy=-149.92415264
O    -4.08098017   0.50999006  -0.44694103
H    -4.98125936   0.92121185  -0.27202982
H    -3.88500118   0.76591532  -1.38376871
O     0.52584074  -1.16280449   0.43174346
H    -0.44660235  -1.22304055   0.82374950
H     0.87863416  -0.60723363   1.23400148
6
# step=   588 energy=-149.92440017
O    -4.08199455   0.50971785  -0.44753320
H    -4.97865076   0.92520401  -0.28356124
H    -3.89974497   0.77613415  -1.37512660
O     0.52821154  -1.16322258   0.43255497
H    -0.44805308  -1.22574719   0.81635932
H     0.87051735  -0.60769325   1.24077168
6
# step=   589 energy=-149.92570936
O    -4.08309900   0.50944424  -0.44800117
H    -4.97420315   0.92860086  -0.29609635
H    -3.91492903   0.78698364  -1.36747676
O     0.53021460  -1.16341989   0.43395204
H    -0.44334417  -1.22899066   0.80482029
H     0.86216720  -0.61116137   1.24233037
6
# step=   590 energy=-149.92757190
O    -4.08429186   0.50915889  -0.44831849
H    -4.96869284   0.93151235  -0.30886539
H    -3.92975482   0.79850238  -1.36199110
O     0.53187116  -1.16341235   0.43588829
H    -0.43314285  -1.23280757   0.78944854
H     0.85386224  -0.61732973   1.23908242
6
# step=   591 energy=-149.92914814
O    -4.08555300   0.50885206  -0.44848594
H    -4.96312242   0.93414679  -0.32105494
H    -3.94349534   0.81062167  -1.35945004
O     0.53323996  -1.16323584   0.43826429
H    -0.41887676  -1.23727194   0.77086114
H     0.84604364  -0.62553402   1.23198161
6
# step=   592 energy=-149.92958870
O    -4.08685075   0.50852069  -0.44853748
H    -4.95856615   0.93676009  -0.33188605
H    -3.95555580   0.82312518  -1.36007806
O     0.53441798  -1.16294374   0.44093407
H    -0.40268610  -1.24250257   0.74992237
H     0.83927284  -0.63479185   1.22248755
6
# step=   593 energy=-149.92852124
O    -4.08815224   0.50817352  -0.44853749
H    -4.95598002   0.93958255  -0.34068439
H    -3.96550044   0.83564084  -1.36351662
O     0.53553466  -1.16260204   0.44371769
H    -0.38726598  -1.24866019   0.72765664
H     0.83416814  -0.64388493   1.21245259
6
# step=   594 energy=-149.92645672
O    -4.08943501   0.50783367  -0.44857060
H    -4.95601474   0.94274067  -0.34693541
H    -3.97305534   0.84767833  -1.36893454
O     0.53673628  -1.16228141   0.44642352
H    -0.37551281  -1.25592366   0.70510870
H     0.83130306  -0.65150948   1.20390589
6
# step=   595 energy=-149.92465719
O    -4.09069629   0.50753791  -0.44872739
H    -4.95888366   0.94619845  -0.35031453
H    -3.97809553   0.85870049  -1.37522639
O     0.53815861  -1.16204682   0.44888008
H    -0.36994257  -1.26443386   0.68316428
H     0.83106525  -0.65650046   1.19872499
6
# step=   596 energy=-149.92428472
O    -4.09195613   0.50733305  -0.44909084
H    -4.96432495   0.94973727  -0.35068754
H    -3.98062005   0.86819688  -1.38122435
O     0.53989318  -1.16194697   0.45096836
H    -0.37201186  -1.27420364   0.66240700
H     0.83350456  -0.65808565   1.19825588
6
# step=   597 energy=-149.92545422
O    -4.09325237   0.50727018  -0.44972508
H    -4.97165155   0.95297747  -0.34809635
H    -3.98072545   0.87573472  -1.38586726
O     0.54195977  -1.16200683   0.45264054
H    -0.38162016  -1.28501478   0.64310990
H     0.83821919  -0.65608884   1.20299768
6
# step=   598 energy=-149.92715847
O    -4.09463237   0.50739654  -0.45066703
H    -4.97987753   0.95544532  -0.34274925
H    -3.97859490   0.88101594  -1.38833732
O     0.54430348  -1.16222500   0.45392212
H    -0.39707152  -1.29638255   0.62532166
H     0.84434667  -0.65100131   1.21247497
6
# step=   599 energy=-149.92816192
O    -4.09614580   0.50774737  -0.45192342
H    -4.98790978   0.95666881  -0.33499076
H    -3.97448091   0.88393288  -1.38816331
O     0.54682219  -1.16257792   0.45489626
H    -0.41559957  -1.30764075   0.60897266
H     0.85070852  -0.64385003   1.22540727
6
# step=   600 energy=-149.92790335
O    -4.09783687   0.50834025  -0.45347165
H    -4.99472956   0.95626079  -0.32525621
H    -3.96867497   0.88458400  -1.38526305
O     0.54940171  -1.16302895   0.45567445
H    -0.43412628  -1.31807362   0.59398567
H     0.85603388  -0.63592988   1.24008022
6
# step=   601 energy=-149.92668435
O    -4.09973772   0.50917208  -0.45526263
H    -4.99952568   0.95397671  -0.31403021
H    -3.96147929   0.88326484  -1.37994075
O     0.55194127  -1.16353775   0.45636920
H    -0.44987242  -1.32703150   0.58033352
H     0.85916111  -0.62853727   1.25472364
6
# step=   602 energy=-149.92528783
O    -4.10186421   0.51021839  -0.45722519
H    -5.00178036   0.94974842  -0.30181057
H    -3.95318451   0.88044457  -1.37284909
O     0.55436624  -1.16406744   0.45707664
H    -0.46069405  -1.33400400   0.56804178
H     0.85916697  -0.62278210   1.26778593
6
# step=   603 energy=-149.92449110
O    -4.10421329   0.51143453  -0.45927251
H    -5.00131657   0.94369906  -0.28907859
H    -3.94405691   0.87672799  -1.36491404
O     0.55663147  -1.16458862   0.45786814
H    -0.46519888  -1.33865072   0.55716904
H     0.85542206  -0.61948883   1.27808481
6
# step=   604 energy=-149.92473932
O    -4.10675982   0.51275823  -0.46130977
H    -4.99831906   0.93614850  -0.27628088
H    -3.93434361   0.87280203  -1.35721927
O     0.55871957  -1.16508090   0.45878691
H    -0.46275626  -1.34080692   0.54778958
H     0.84760350  -0.61915884   1.28486782
6
# step=   605 energy=-149.92600155
O    -4.10945305   0.51411355  -0.46324437
H    -4.99333624   0.92761019  -0.26381645
H    -3.92429591   0.86936389  -1.35084258
O     0.56063912  -1.16553296   0.45984642
H    -0.45350601  -1.34048953   0.53997629
H     0.83570151  -0.62195188   1.28784137
6
# step=   606 energy=-149.92776561
O    -4.11221814   0.51541897  -0.46500096
H    -4.98724232   0.91875851  -0.25200960
H    -3.91419319   0.86702843  -1.34664644
O     0.56242725  -1.16594293   0.46103055
H    -0.43838650  -1.33791169   0.53376967
H     0.82001673  -0.62766979   1.28720422
6
# step=   607 energy=-149.92918685
O    -4.11496343   0.51659794  -0.46653592
H    -4.98113372   0.91035917  -0.24108586
H    -3.90436333   0.86624065  -1.34508529
O     0.56415331  -1.16631866   0.46229554
H    -0.41913029  -1.33348755   0.52914569
H     0.80112969  -0.63575861   1.28366298
6
# step=   608 energy=-149.92943864
O    -4.11759061   0.51758780  -0.46784327
H    -4.97616502   0.90317888  -0.23118045
H    -3.89520051   0.86722811  -1.34610918
O     0.56591855  -1.16667726   0.46357313
H    -0.39819146  -1.32781671   0.52599488
H     0.77985038  -0.64533688   1.27840838
6
# step=   609 energy=-149.92821819
O    -4.12000776   0.51834583  -0.46895023
H    -4.97334491   0.89788534  -0.22237881
H    -3.88716350   0.87000592  -1.34919604
O     0.56784821  -1.16704378   0.46477681
H    -0.37854322  -1.32163883   0.52410938
H     0.75714482  -0.65526315   1.27303141
6
# step=   610 energy=-149.92611944
O    -4.12214423   0.51885215  -0.46990484
H    -4.97333194   0.89495305  -0.21477365
H    -3.88074453   0.87442516  -1.35349295
O     0.57007257  -1.16744860   0.46581365
H    -0.36326189  -1.31574408   0.52317683
H     0.73402548  -0.66426886   1.26934010
6
# step=   611 energy=-149.92442661
O    -4.12396313   0.51910939  -0.47076080
H    -4.97629043   0.89459936  -0.20851634
H    -3.87641747   0.88024329  -1.35801013
O     0.57269613  -1.16792246   0.46660339
H    -0.35489295  -1.31084270   0.52278469
H     0.71141333  -0.67116868   1.26905171
6
# step=   612 energy=-149.92423065
O    -4.12546577   0.51913921  -0.47156398
H    -4.98185422   0.89676949  -0.20384387
H    -3.87458557   0.88718866  -1.36180174
O     0.57576146  -1.16848855   0.46710137
H    -0.35477563  -1.30743442   0.52243941
H     0.69002486  -0.67511229   1.27339926
6
# step=   613 energy=-149.92554408
O    -4.12668658   0.51897739  -0.47234342
H    -4.98919414   0.90116101  -0.20106750
H    -3.87553496   0.89499453  -1.36409529
O     0.57922016  -1.16915239   0.46731779
H    -0.36261696  -1.30573419   0.52160553
H     0.67034928  -0.67579926   1.28275864
6
# step=   614 energy=-149.92731048
O    -4.12768563   0.51866858  -0.47310944
H    -4.99717923   0.90727798  -0.20050577
H    -3.87938451   0.90342467  -1.36438496
O     0.58293512  -1.16989544   0.46732488
H    -0.37654710  -1.30567388   0.51976727
H     0.65265952  -0.67357694   1.29646781
6
# step=   615 energy=-149.92830896
O    -4.12853966   0.51825983  -0.47385762
H    -5.00460564   0.91452292  -0.20239951
H    -3.88606413   0.91230777  -1.36248130
O     0.58671876  -1.17067799   0.46724417
H    -0.39369895  -1.30698179   0.51649373
H     0.63704357  -0.66933640   1.31299364
6
# step=   616 energy=-149.92801690
O    -4.12932993   0.51779442  -0.47457341
H    -5.01040174   0.92228898  -0.20685116
H    -3.89532613   0.92155195  -1.35850617
O     0.59037607  -1.17144843   0.46721920
H    -0.41095749  -1.30929640   0.51148034
H     0.62348758  -0.66425840   1.33033576
6
# step=   617 energy=-149.92677735
O    -4.13013153   0.51730764  -0.47523693
H    -5.01377211   0.93002981  -0.21378923
H    -3.90677049   0.93114085  -1.35285213
O     0.59373592  -1.17215411   0.46738810
H    -0.42553339  -1.31225727   0.50455848
H     0.61194622  -0.65954787   1.34645555
6
# step=   618 energy=-149.92541318
O    -4.13100563   0.51682472  -0.47582776
H    -5.01428431   0.93730779  -0.22295486
H    -3.91987798   0.94111757  -1.34611657
O     0.59666819  -1.17274998   0.46786440
H    -0.43527136  -1.31555770   0.49568025
H     0.60237324  -0.65624154   1.35959639
6
# step=   619 energy=-149.92472205
O    -4.13199411   0.51636069  -0.47632994
H    -5.01191058   0.94382378  -0.23390397
H    -3.93404529   0.95155427  -1.33901576
O     0.59908948  -1.17320345   0.46872724
H    -0.43875556  -1.31896739   0.48489300
H     0.59472605  -0.65510451   1.36846138
6
# step=   620 energy=-149.92512101
O    -4.13311557   0.51592209  -0.47673690
H    -5.00703804   0.94942978  -0.24601532
H    -3.94861222   0.96250274  -1.33228696
O     0.60096247  -1.17349610   0.47001731
H    -0.43532031  -1.32233814   0.47232051
H     0.58896069  -0.65658809   1.37228660
6
# step=   621 energy=-149.92649616
O    -4.13436322   0.51550994  -0.47705608
H    -5.00044935   0.95413037  -0.25851089
H    -3.96288867   0.97393632  -1.32658220
O     0.60229586  -1.17362429   0.47173438
H    -0.42506074  -1.32560594   0.45815079
H     0.58501699  -0.66080908   1.37088092
6
# step=   622 energy=-149.92824382
O    -4.13570748   0.51512307  -0.47731232
H    -4.99324456   0.95807298  -0.27051642
H    -3.97620541   0.98571180  -1.32236041
O     0.60314798  -1.17359966   0.47383742
H    -0.40885107  -1.32879979   0.44260561
H     0.58279352  -0.66753757   1.36466087
6
# step=   623 energy=-149.92949784
O    -4.13710411   0.51476191  -0.47754749
H    -4.98668712   0.96150814  -0.28115296
H    -3.98796996   0.99755924  -1.31981459
O     0.60362852  -1.17344876   0.47624826
H    -0.38832161  -1.33205181   0.42589289
H     0.58212856  -0.67620386   1.35465358
6
# step=   624 energy=-149.92951769
O    -4.13850573   0.51443266  -0.47781574
H    -4.98199492   0.96471272  -0.28963012
H    -3.99770295   1.00909562  -1.31886065
O     0.60389399  -1.17321142   0.47885734
H    -0.36576565  -1.33559774   0.40816275
H     0.58279194  -0.68592823   1.34245371
6
# step=   625 energy=-149.92813519
O    -4.13987496   0.51415101  -0.47817563
H    -4.98011327   0.96789250  -0.29532839
H    -4.00505805   1.01986444  -1.31918178
O     0.60413441  -1.17293793   0.48153277
H    -0.34392219  -1.33975540   0.38947789
H     0.58448280  -0.69558875   1.33010926
6
# step=   626 energy=-149.92601062
O    -4.14119587   0.51394406  -0.47868149
H    -4.98152498   0.97109328  -0.29785857
H    -4.00983055   1.02939468  -1.32030819
O     0.60454822  -1.17268440   0.48413481
H    -0.32557251  -1.34486611   0.36981522
H     0.58683106  -0.70395436   1.31988969
6
# step=   627 energy=-149.92437249
O    -4.14248029   0.51384942  -0.47937628
H    -4.98615730   0.97415342  -0.29708576
H    -4.01195409   1.03726334  -1.32170917
O     0.60530658  -1.17250608   0.48653559
H    -0.31297077  -1.35119294   0.34912406
H     0.58940206  -0.70989513   1.31391318
6
# step=   628 energy=-149.92421033
O    -4.14376586   0.51391123  -0.48028660
H    -4.99341039   0.97671452  -0.29311718
H    -4.01148479   1.04314262  -1.32287747
O     0.60651687  -1.17244915   0.48863897
H    -0.30728361  -1.35879436   0.32745837
H     0.59170305  -0.71263416   1.31368973
6
# step=   629 energy=-149.92550424
O    -4.14510594   0.51417309  -0.48141839
H    -5.00227337   0.97828497  -0.28627813
H    -4.00858641   1.04682906  -1.32339635
O     0.60819891  -1.17254231   0.49039348
H    -0.30828362  -1.36741940   0.30515465
H     0.59319631  -0.71196503   1.31970981
6
# step=   630 energy=-149.92725041
O    -4.14655815   0.51466883  -0.48275543
H    -5.01151017   0.97834667  -0.27707736
H    -4.00352206   1.04828174  -1.32299499
O     0.61028785  -1.17279085   0.49180018
H    -0.31444304  -1.37650837   0.28289282
H     0.59334060  -0.70834576   1.33125485
6
# step=   631 energy=-149.92828936
O    -4.14817572   0.51541542  -0.48426335
H    -5.01988816   0.97646683  -0.26613527
H    -3.99662656   1.04764591  -1.32158350
O     0.61266543  -1.17317733   0.49290926
H    -0.32343381  -1.38532015   0.26157640
H     0.59165369  -0.70278000   1.34659926
6
# step=   632 energy=-149.92810774
O    -4.14999947   0.51640930  -0.48589464
H    -5.02636295   0.97237660  -0.25410917
H    -3.98827118   1.04524057  -1.31925683
O     0.61519700  -1.17366890   0.49380178
H    -0.33275194  -1.39309252   0.24216141
H     0.58776607  -0.69654890   1.36348172
6
# step=   633 energy=-149.92700640
O    -4.15205187   0.51762562  -0.48759375
H    -5.03019799   0.96601466  -0.24163358
H    -3.97883657   1.04152572  -1.31627110
O     0.61775866  -1.17422636   0.49456874
H    -0.34018585  -1.39916791   0.22550404
H     0.58145222  -0.69093863   1.37959219
6
# step=   634 energy=-149.92574671
O    -4.15433362   0.51902010  -0.48930302
H    -5.03103247   0.95754299  -0.22927271
H    -3.96869567   1.03705606  -1.31299517
O     0.62025209  -1.17481161   0.49529541
H    -0.34406236  -1.40306450   0.21225768
H     0.57263541  -0.68704833   1.39292325
6
# step=   635 energy=-149.92507458
O    -4.15682148   0.52053244  -0.49096888
H    -5.02891129   0.94734420  -0.21748487
H    -3.95820888   1.03242543  -1.30984260
O     0.62261010  -1.17539209   0.49605249
H    -0.34333050  -1.40450187   0.20282333
H     0.56137323  -0.68569127   1.40195776
6
# step=   636 energy=-149.92538019
O    -4.15946608   0.52209018  -0.49254750
H    -5.02428810   0.93601000  -0.20660103
H    -3.94773430   1.02820890  -1.30719343
O     0.62479699  -1.17594233   0.49689198
H    -0.33757289  -1.40340433   0.19733214
H     0.54784117  -0.68735811   1.40574211
6
# step=   637 energy=-149.92655698
O    -4.16219117   0.52361341  -0.49400979
H    -5.01799929   0.92431486  -0.19681239
H    -3.93764354   1.02490674  -1.30531699
O     0.62680847  -1.17644430   0.49784555
H    -0.32701298  -1.39990462   0.19562721
H     0.53231961  -0.69220076   1.40392137
6
# step=   638 energy=-149.92805095
O    -4.16489944   0.52502214  -0.49534595
H    -5.01118018   0.91315075  -0.18816249
H    -3.92832309   1.02289500  -1.30431127
O     0.62867436  -1.17688800   0.49892451
H    -0.31252010  -1.39434754   0.19723682
H     0.51516523  -0.70002251   1.39677141
6
# step=   639 energy=-149.92908655
O    -4.16748487   0.52624481  -0.49656627
H    -5.00510410   0.90342525  -0.18056720
H    -3.92016318   1.02240015  -1.30408197
O     0.63046109  -1.17727234   0.50012051
H    -0.29557669  -1.38727880   0.20136535
H     0.49676492  -0.71028394   1.38520737
6
# step=   640 energy=-149.92902754
O    -4.16984827   0.52722516  -0.49769574
H    -5.00096200   0.89594691  -0.17387787
H    -3.91354246   1.02350771  -1.30437011
O     0.63226922  -1.17760582   0.50140621
H    -0.27817847  -1.37941237   0.20692020
H     0.47748833  -0.72212969   1.37075160
6
# step=   641 energy=-149.92776367
O    -4.17191371   0.52792709  -0.49876446
H    -4.99962395   0.89131631  -0.16797320
H    -3.90880706   1.02619599  -1.30481608
O     0.63422288  -1.17790663   0.50273681
H    -0.26261968  -1.37156627   0.21259115
H     0.45764440  -0.73445133   1.35543188
6
# step=   642 energy=-149.92590484
O    -4.17364222   0.52833684  -0.49979731
H    -5.00144763   0.88984581  -0.16284701
H    -3.90624523   1.03038055  -1.30503759
O     0.63644865  -1.17820140   0.50405463
H    -0.25112005  -1.36455800   0.21700039
H     0.43745046  -0.74601330   1.34155838
6
# step=   643 energy=-149.92452549
O    -4.17503814   0.52846228  -0.50080666
H    -5.00620136   0.89153167  -0.15865639
H    -3.90606435   1.03595518  -1.30469894
O     0.63904413  -1.17852100   0.50529932
H    -0.24532776  -1.35907149   0.21891422
H     0.41703804  -0.75565370   1.33135002
6
# step=   644 energy=-149.92446198
O    -4.17614511   0.52832920  -0.50178959
H    -5.01312494   0.89608206  -0.15571163
H    -3.90837466   1.04281580  -1.30355768
O     0.64204295  -1.17889253   0.50642295
H    -0.24585505  -1.35553899   0.21746031
H     0.39652974  -0.76252359   1.32646666
6
# step=   645 energy=-149.92566543
O    -4.17703408   0.52797688  -0.50272912
H    -5.02108937   0.90297496  -0.15441054
H    -3.91317153   1.05085691  -1.30148823
O     0.64538813  -1.17932933   0.50740561
H    -0.25204541  -1.35408224   0.21227964
H     0.37618198  -0.76628848   1.32758657
6
# step=   646 energy=-149.92724099
O    -4.17779023   0.52745363  -0.50360074
H    -5.02882068   0.91153707  -0.15513188
H    -3.92032082   1.05996322  -1.29848452
O     0.64893498  -1.17982465   0.50826607
H    -0.26210538  -1.35452569   0.20355508
H     0.35647134  -0.76721629   1.33420730
6
# step=   647 energy=-149.92817098
O    -4.17850055   0.52681140  -0.50438142
H    -5.03513815   0.92104635  -0.15813423
H    -3.92957061   1.07001165  -1.29463875
O     0.65248613  -1.18035353   0.50905950
H    -0.27358089  -1.35648304   0.19188934
H     0.33806088  -0.76607881   1.34482572
6
# step=   648 energy=-149.92801855
O    -4.17924244   0.52610105  -0.50505617
H    -5.03913052   0.93081999  -0.16349262
H    -3.94057552   1.08086476  -1.29010807
O     0.65583397  -1.18088054   0.50986186
H    -0.28391908  -1.35947504   0.17811100
H     0.32170111  -0.76391582   1.35738998
6
# step=   649 energy=-149.92707509
O    -4.18007585   0.52536945  -0.50562189
H    -5.04025807   0.94027468  -0.17107004
H    -3.95291994   1.09235741  -1.28508069
O     0.65879483  -1.18136889   0.51075120
H    -0.29089181  -1.36302651   0.16309830
H     0.30810657  -0.76179239   1.36977487
6
# step=   650 energy=-149.92603262
O    -4.18103881   0.52465765  -0.50608916
H    -5.03839813   0.94896527  -0.18051503
H    -3.96613791   1.10428450  -1.27974755
O     0.66122966  -1.18178725   0.51179366
H    -0.29282664  -1.36672625   0.14765523
H     0.29784964  -0.76062781   1.38012669
6
# step=   651 energy=-149.92554227
O    -4.18214571   0.52399995  -0.50648218
H    -5.03385034   0.95660598  -0.19127605
H    -3.97972680   1.11639216  -1.27428451
O     0.66305294  -1.18211331   0.51303606
H    -0.28869234  -1.37025632   0.13243999
H     0.29129431  -0.76110610   1.38704992
6
# step=   652 energy=-149.92591043
O    -4.18338726   0.52342347  -0.50683703
H    -5.02731087   0.96307545  -0.20262675
H    -3.99315375   1.12837320  -1.26884742
O     0.66423473  -1.18233489   0.51450277
H    -0.27811645  -1.37340309   0.11792941
H     0.28856197  -0.76364080   1.38968431
6
# step=   653 energy=-149.92699698
O    -4.18473300   0.52294785  -0.50719823
H    -5.01980810   0.96840713  -0.21371018
H    -4.00586609   1.13987578  -1.26357551
O     0.66480171  -1.18245009   0.51619483
H    -0.26139067  -1.37606367   0.10439145
H     0.28950596  -0.76836135   1.38774009
6
# step=   654 energy=-149.92828924
O    -4.18613798   0.52258537  -0.50761399
H    -5.01257659   0.97276009  -0.22361696
H    -4.01732040   1.15053435  -1.25859484
O     0.66483837  -1.18246723   0.51809116
H    -0.23945903  -1.37825401   0.09184645
H     0.29369032  -0.77510851   1.38152209
6
# step=   655 energy=-149.92911054
O    -4.18755337   0.52234270  -0.50813015
H    -5.00686807   0.97635745  -0.23148740
H    -4.02702066   1.16001046  -1.25402056
O     0.66448487  -1.18240465   0.52015098
H    -0.21386035  -1.38011350   0.08003303
H     0.30038545  -0.78344106   1.37193306
6
# step=   656 energy=-149.92892087
O    -4.18893876   0.52222451  -0.50878396
H    -5.00373088   0.97939634  -0.23661469
H    -4.03455238   1.16802784  -1.24995806
O     0.66392886  -1.18228993   0.52231636
H    -0.18660536  -1.38189606   0.06840644
H     0.30858749  -0.79265923   1.36043919
6
# step=   657 energy=-149.92763909
O    -4.19027334   0.52223785  -0.50959893
H    -5.00380753   0.98195486  -0.23853116
H    -4.03960990   1.17439705  -1.24650050
O     0.66338857  -1.18215862   0.52451536
H    -0.15995770  -1.38393683   0.05619701
H     0.31707202  -0.80186077   1.34896308
6
# step=   658 energy=-149.92582191
O    -4.19156291   0.52239523  -0.51058207
H    -5.00720783   0.98393062  -0.23706044
H    -4.04201507   1.17902889  -1.24372292
O     0.66308568  -1.18205146   0.52666751
H    -0.13610044  -1.38658400   0.04255624
H     0.32449941  -0.81005380   1.33965149
6
# step=   659 energy=-149.92446295
O    -4.19284015   0.52271480  -0.51172393
H    -5.01349901   0.98503684  -0.23232318
H    -4.04172323   1.18193542  -1.24167587
O     0.66321022  -1.18200949   0.52869323
H    -0.11673623  -1.39009882   0.02679207
H     0.32957789  -0.81633636   1.33448958
6
# step=   660 energy=-149.92436859
O    -4.19415767   0.52321727  -0.51300050
H    -5.02180587   0.98485718  -0.22470272
H    -4.03881766   1.18321908  -1.24038187
O     0.66388663  -1.18206690   0.53052632
H    -0.10275800  -1.39454926   0.00864396
H     0.33125864  -0.82011090   1.33481891
6
# step=   661 energy=-149.92553313
O    -4.19557507   0.52391964  -0.51437499
H    -5.03097031   0.98294263  -0.21479758
H    -4.03350605   1.18305786  -1.23983286
O     0.66515165  -1.18224314   0.53212597
H    -0.09412414  -1.39973962  -0.01150249
H     0.32891574  -0.82126281   1.34090855
6
# step=   662 energy=-149.92712533
O    -4.19714679   0.52482898  -0.51580255
H    -5.03974996   0.97892385  -0.20335208
H    -4.02611507   1.18169275  -1.23998263
O     0.66695366  -1.18253805   0.53348717
H    -0.08995709  -1.40522633  -0.03261663
H     0.32245269  -0.82022299   1.35178882
6
# step=   663 energy=-149.92814990
O    -4.19891402   0.52593951  -0.51723851
H    -5.04702596   0.97259736  -0.19115356
H    -4.01706181   1.17940486  -1.24074055
O     0.66917729  -1.18293355   0.53464167
H    -0.08884513  -1.41042295  -0.05326689
H     0.31226117  -0.81785260   1.36550178
6
# step=   664 energy=-149.92813480
O    -4.20089870   0.52723212  -0.51864467
H    -5.05195354   0.96397083  -0.17894098
H    -4.00682005   1.17648572  -1.24196989
O     0.67167781  -1.18340057   0.53564585
H    -0.08921665  -1.41472876  -0.07193566
H     0.29906494  -0.81521047   1.37961899
6
# step=   665 energy=-149.92730158
O    -4.20309960   0.52867502  -0.51999342
H    -5.05404879   0.95327587  -0.16733914
H    -3.99589422   1.17321247  -1.24348850
O     0.67431030  -1.18390680   0.53656495
H    -0.08963024  -1.41763041  -0.08727952
H     0.28374259  -0.81332741   1.39175398
6
# step=   666 energy=-149.92627420
O    -4.20549082   0.53022531  -0.52127008
H    -5.05322801   0.94095757  -0.15681269
H    -3.98479941   1.16983241  -1.24507377
O     0.67694846  -1.18442227   0.53746114
H    -0.08893953  -1.41876105  -0.09829317
H     0.26718531  -0.81305565   1.39991389
6
# step=   667 energy=-149.92567000
O    -4.20802206   0.53183064  -0.52247378
H    -5.04981098   0.92764921  -0.14763811
H    -3.97404574   1.16655871  -1.24647417
O     0.67949431  -1.18492216   0.53838731
H    -0.08636387  -1.41792423  -0.10438743
H     0.25020501  -0.81499737   1.40267458
6
# step=   668 energy=-149.92581498
O    -4.21062019   0.53343062  -0.52361632
H    -5.04449175   0.91413693  -0.13989517
H    -3.96412605   1.16357735  -1.24742874
O     0.68188179  -1.18538754   0.53938460
H    -0.08151132  -1.41509950  -0.10541902
H     0.23348408  -0.81948208   1.39924177
6
# step=   669 energy=-149.92664331
O    -4.21319380   0.53495896  -0.52471925
H    -5.03826866   0.90130699  -0.13347891
H    -3.95549970   1.16106115  -1.24769532
O     0.68407839  -1.18580526   0.54048190
H    -0.07438645  -1.41044371  -0.10170901
H     0.21754179  -0.82656150   1.38947228
6
# step=   670 energy=-149.92775047
O    -4.21564329   0.53634784  -0.52580949
H    -5.03231290   0.89006119  -0.12813745
H    -3.94856519   1.15918536  -1.24708505
O     0.68608796  -1.18616822   0.54169597
H    -0.06538674  -1.40428737  -0.09405477
H     0.20269060  -0.83601102   1.37388482
6
# step=   671 energy=-149.92855821
O    -4.21787604   0.53753407  -0.52691303
H    -5.02777375   0.88120970  -0.12354668
H    -3.94363065   1.15814248  -1.24549511
O     0.68795300  -1.18647592   0.54303160
H    -0.05527138  -1.39711778  -0.08371064
H     0.18898498  -0.84734273   1.35364666
6
# step=   672 energy=-149.92855990
O    -4.21982217   0.53846503  -0.52804733
H    -5.02555562   0.87536834  -0.11941596
H    -3.94089475   1.15815383  -1.24293061
O     0.68975283  -1.18673507   0.54448078
H    -0.04508394  -1.38954412  -0.07231560
H     0.17618432  -0.85983534   1.33051824
6
# step=   673 energy=-149.92760292
O    -4.22144723   0.53910333  -0.52921449
H    -5.02612603   0.87288291  -0.11559413
H    -3.94044113   1.15947186  -1.23950889
O     0.69159472  -1.18695958   0.54602184
H    -0.03600590  -1.38223890  -0.06174599
H     0.16375373  -0.87259379   1.30672284
6
# step=   674 energy=-149.92608231
O    -4.22275802   0.53942967  -0.53039840
H    -5.02941733   0.87379769  -0.11213527
H    -3.94224619   1.16236763  -1.23544180
O     0.69359520  -1.18716927   0.54762033
H    -0.02912831  -1.37585289  -0.05387857
H     0.15093743  -0.88465668   1.28469619
6
# step=   675 energy=-149.92482753
O    -4.22379951   0.53944348  -0.53156726
H    -5.03485743   0.87787504  -0.10929765
H    -3.94619892   1.16710056  -1.23099574
O     0.69585142  -1.18738629   0.54923405
H    -0.02517131  -1.37091459  -0.05028740
H     0.13693763  -0.89515390   1.26670347
6
# step=   676 energy=-149.92459638
O    -4.22464360   0.53916209  -0.53268060
H    -5.04151047   0.88465269  -0.10747955
H    -3.95212589   1.17386995  -1.22643784
O     0.69840749  -1.18762944   0.55082199
H    -0.02423872  -1.36774348  -0.05195270
H     0.12119326  -0.90347957   1.25439925
6
# step=   677 energy=-149.92550116
O    -4.22537383   0.53862005  -0.53369801
H    -5.04826712   0.89350915  -0.10711784
H    -3.95980756   1.18274762  -1.22198179
O     0.70122701  -1.18790820   0.55235347
H    -0.02571197  -1.36640618  -0.05907323
H     0.10367624  -0.90941807   1.24847675
6
# step=   678 energy=-149.92691172
O    -4.22607163   0.53786847  -0.53458887
H    -5.05404476   0.90373251  -0.10857598
H    -3.96898970   1.19361576  -1.21773861
O     0.70418944  -1.18821994   0.55381499
H    -0.02834406  -1.36672434  -0.07105051
H     0.08503409  -0.91317831   1.24853856
6
# step=   679 energy=-149.92796110
O    -4.22680632   0.53697193  -0.53534098
H    -5.05796594   0.91460328  -0.11205495
H    -3.97940193   1.20614696  -1.21368581
O     0.70711729  -1.18855204   0.55521160
H    -0.03053512  -1.36833682  -0.08667772
H     0.06646793  -0.91530956   1.25327987
6
# step=   680 energy=-149.92815428
O    -4.22762883   0.53600338  -0.53596346
H    -5.05947279   0.92546468  -0.11754662
H    -3.99076595   1.21982328  -1.20967611
O     0.70981643  -1.18888710   0.55656083
H    -0.03066370  -1.37079272  -0.10443895
H     0.04944140  -0.91653369   1.26089509
6
# step=   681 energy=-149.92758561
O    -4.22856911   0.53503826  -0.53648471
H    -5.05837743   0.93576853  -0.12482200
H    -4.00278796   1.23398490  -1.20548249
O     0.71211181  -1.18920797   0.55788425
H    -0.02735035  -1.37363583  -0.12278962
H     0.03537304  -0.91758020   1.26949287
6
# step=   682 energy=-149.92674632
O    -4.22963639   0.53414823  -0.53694754
H    -5.05486685   0.94510255  -0.13344357
H    -4.01514473   1.24790141  -1.20086270
O     0.71387111  -1.18950101   0.55920161
H    -0.01961171  -1.37646278  -0.14035905
H     0.02540833  -0.91907460   1.27739155
6
# step=   683 energy=-149.92618532
O    -4.23082138   0.53339529  -0.53740294
H    -5.04947412   0.95320188  -0.14279433
H    -4.02747141   1.26085208  -1.19562615
O     0.71501617  -1.18975742   0.56052815
H    -0.00692370  -1.37895535  -0.15607129
H     0.02029298  -0.92148243   1.28327982
6
# step=   684 energy=-149.92623947
O    -4.23209955   0.53282718  -0.53790358
H    -5.04301923   0.95994359  -0.15212033
H    -4.03935524   1.27220103  -1.18969051
O     0.71552658  -1.18997331   0.56187390
H     0.01076512  -1.38089551  -0.16920811
H     0.02031736  -0.92508910   1.28628510
6
# step=   685 energy=-149.92690597
O    -4.23343598   0.53247454  -0.53849736
H    -5.03651456   0.96532323  -0.16059088
H    -4.05034126   1.28146214  -1.18311915
O     0.71544011  -1.19014928   0.56324390
H     0.03304022  -1.38217257  -0.17944560
H     0.02529002  -0.92999484   1.28600235
6
# step=   686 energy=-149.92785041
O    -4.23479257   0.53235015  -0.53922146
H    -5.03102627   0.96941304  -0.16738333
H    -4.05995643   1.28835252  -1.17613249
O     0.71485202  -1.19029017   0.56463877
H     0.05905026  -1.38278745  -0.18688359
H     0.03452177  -0.93611572   1.28251384
6
# step=   687 energy=-149.92853459
O    -4.23613726   0.53245105  -0.54009738
H    -5.02750135   0.97230174  -0.17178478
H    -4.06774755   1.29282435  -1.16909102
O     0.71391118  -1.19040482   0.56605524
H     0.08757502  -1.38285187  -0.19205557
H     0.04683177  -0.94319179   1.27639695
6
# step=   688 energy=-149.92845448
O    -4.23745288   0.53276300  -0.54112766
H    -5.02659654   0.97402674  -0.17328868
H    -4.07332119   1.29506394  -1.16245551
O     0.71281084  -1.19050581   0.56748571
H     0.11713679  -1.38257606  -0.19589152
H     0.06059410  -0.95080750   1.26869828
6
# step=   689 energy=-149.92744406
O    -4.23874310   0.53326601  -0.54229522
H    -5.02855395   0.97452298  -0.17166470
H    -4.07637883   1.29545712  -1.15673058
O     0.71177218  -1.19060878   0.56891738
H     0.14615715  -1.38223875  -0.19960680
H     0.07385075  -0.95843498   1.26083881
6
# step=   690 energy=-149.92589250
O    -4.24003354   0.53393915  -0.54356594
H    -5.03315980   0.97361070  -0.16698593
H    -4.07674423   1.29452570  -1.15239790
O     0.71101909  -1.19073079   0.57033274
H     0.17315379  -1.38213537  -0.20449998
H     0.08452201  -0.96551271   1.25440626
6
# step=   691 energy=-149.92463499
O    -4.24136755   0.53476379  -0.54489439
H    -5.03979738   0.97102892  -0.15960722
H    -4.07438008   1.29284239  -1.14984687
O     0.71074600  -1.19088751   0.57171323
H     0.19694321  -1.38250875  -0.21167373
H     0.09071959  -0.97156107   1.25081777
6
# step=   692 energy=-149.92443527
O    -4.24279710   0.53572485  -0.54623095
H    -5.04756979   0.96650357  -0.15010726
H    -4.06939569   1.29093813  -1.14931240
O     0.71108574  -1.19108939   0.57304579
H     0.21678286  -1.38347967  -0.22174201
H     0.09110494  -0.97630739   1.25091557
6
# step=   693 energy=-149.92540162
O    -4.24437037   0.53680956  -0.54752808
H    -5.05544803   0.95983477  -0.13922080
H    -4.06205669   1.28921954  -1.15082338
O     0.71208626  -1.19133832   0.57432870
H     0.23240589  -1.38500131  -0.23461626
H     0.08518513  -0.97977083   1.25464199
6
# step=   694 energy=-149.92688849
O    -4.24612103   0.53800620  -0.54874764
H    -5.06243127   0.95097548  -0.12775363
H    -4.05278778   1.28790841  -1.15416800
O     0.71370530  -1.19162702   0.57557427
H     0.24398701  -1.38685963  -0.24947781
H     0.07342420  -0.98226906   1.26096480
6
# step=   695 energy=-149.92800499
O    -4.24806292   0.53930408  -0.54986817
H    -5.06770240   0.94006748  -0.11647363
H    -4.04214329   1.28701954  -1.15890317
O     0.71582933  -1.19194206   0.57680628
H     0.25204781  -1.38872524  -0.26497753
H     0.05707579  -0.98433198   1.26813599
6
# step=   696 energy=-149.92822604
O    -4.25018769   0.54069214  -0.55088766
H    -5.07073326   0.92744211  -0.10602169
H    -4.03076248   1.28639049  -1.16441009
O     0.71830619  -1.19226835   0.57805198
H     0.25730590  -1.39022966  -0.27954599
H     0.03783425  -0.98656157   1.27413999
6
# step=   697 energy=-149.92761753
O    -4.25246456   0.54215586  -0.55182192
H    -5.07133464   0.91360091  -0.09685625
H    -4.01932333   1.28575091  -1.16997587
O     0.72097567  -1.19259263   0.57933443
H     0.26053415  -1.39103455  -0.29168541
H     0.01748668  -0.98950693   1.27710858
6
# step=   698 energy=-149.92666093
O    -4.25484258   0.54367389  -0.55270061
H    -5.06966357   0.89918190  -0.08922456
H    -4.00849619   1.28480856  -1.17488349
O     0.72369102  -1.19290516   0.58066891
H     0.26246334  -1.39087915  -0.30018138
H    -0.00233818  -0.99358879   1.27558805
6
# step=   699 energy=-149.92592927
O    -4.25725473   0.54521545  -0.55356218
H    -5.06619479   0.88491654  -0.08315866
H    -3.99889969   1.28333163  -1.17849546
O     0.72633126  -1.19319989   0.58206303
H     0.26372485  -1.38960549  -0.30422744
H    -0.02031430  -0.99906966   1.26865918
6
# step=   700 energy=-149.92581793
O    -4.25962353   0.54673898  -0.55444785
H    -5.06165815   0.87158142  -0.07849699
H    -3.99106302   1.28121545  -1.18032205
O     0.72880660  -1.19347375   0.58351849
H     0.26482023  -1.38716872  -0.30348739
H    -0.03548765  -1.00604977   1.25596763
6
# step=   701 energy=-149.92639868
O    -4.26186830   0.54819232  -0.55539502
H    -5.05693986   0.85994221  -0.07493269
H    -3.98539305   1.27852983  -1.18007323
O     0.73106093  -1.19372592   0.58503264
H     0.26610611  -1.38364075  -0.29812812
H    -0.04731470  -1.01447154   1.23772351
6
# step=   702 energy=-149.92739417
O    -4.26391562   0.54951549  -0.55643028
H    -5.05294420   0.85068285  -0.07208744
H    -3.98214349   1.27554443  -1.17769418
O     0.73307459  -1.19395722   0.58660022
H     0.26778853  -1.37920869  -0.28883513
H    -0.05570384  -1.02412884   1.21468919
6
# step=   703 energy=-149.92827166
O    -4.26571162   0.55064584  -0.55756331
H    -5.05042952   0.84432905  -0.06960525
H    -3.98139388   1.27272788  -1.17337594
O     0.73486728  -1.19416988   0.58821503
H     0.26992822  -1.37416381  -0.27679279
H    -0.06105500  -1.03468630   1.18813779
6
# step=   704 energy=-149.92846640
O    -4.26723207   0.55152380  -0.55878276
H    -5.04985949   0.84119074  -0.06724692
H    -3.98305120   1.27071745  -1.16753177
O     0.73649777  -1.19436741   0.58987092
H     0.27246389  -1.36887811  -0.26360857
H    -0.06426380  -1.04571017   1.15976795
6
# step=   705 energy=-149.92770345
O    -4.26848658   0.55209857  -0.56005621
H    -5.05131504   0.84133757  -0.06495505
H    -3.98687754   1.27025518  -1.16073662
O     0.73805678  -1.19455424   0.59156182
H     0.27526159  -1.36376694  -0.25116514
H    -0.06665173  -1.05671314   1.13155848
6
# step=   706 energy=-149.92626270
O    -4.26951560   0.55233388  -0.56133551
H    -5.05449464   0.84460896  -0.06286609
H    -3.99254098   1.27208725  -1.15363108
O     0.73965077  -1.19473519   0.59328133
H     0.27819457  -1.35923636  -0.24138816
H    -0.06978119  -1.06721677   1.10554359
6
# step=   707 energy=-149.92493004
O    -4.27038112   0.55221374  -0.56256704
H    -5.05879928   0.85065275  -0.06126680
H    -3.99968141   1.27683295  -1.14680105
O     0.74137579  -1.19491483   0.59502236
H     0.28124481  -1.35562009  -0.23594502
H    -0.07513847  -1.07682609   1.08351904
6
# step=   708 energy=-149.92452362
O    -4.27115374   0.55174791  -0.56370372
H    -5.06346778   0.85897674  -0.06051468
H    -4.00797216   1.28484290  -1.14066114
O     0.74328634  -1.19509680   0.59677583
H     0.28459620  -1.35312162  -0.23593721
H    -0.08373745  -1.08529374   1.06675072
6
# step=   709 energy=-149.92529479
O    -4.27189971   0.55097643  -0.56471445
H    -5.06771690   0.86899137  -0.06094827
H    -4.01715121   1.29607148  -1.13537749
O     0.74536895  -1.19528365   0.59852705
H     0.28867471  -1.35177943  -0.24166990
H    -0.09577386  -1.09254588   1.05578535
6
# step=   710 energy=-149.92673382
O    -4.27267200   0.54997093  -0.56559004
H    -5.07086693   0.88004831  -0.06280429
H    -4.02702097   1.31001019  -1.13084664
O     0.74753572  -1.19547733   0.60025318
H     0.29410673  -1.35146322  -0.25257197
H    -0.11049784  -1.09867084   1.05040403
6
# step=   711 energy=-149.92797423
O    -4.27350693   0.54882834  -0.56634514
H    -5.07244294   0.89149846  -0.06616042
H    -4.03743425   1.32574259  -1.12673830
O     0.74964542  -1.19568033   0.60192516
H     0.30160712  -1.35190731  -0.26733426
H    -0.12640533  -1.10387983   1.04974396
6
# step=   712 energy=-149.92840141
O    -4.27442459   0.54765877  -0.56701385
H    -5.07222919   0.90274507  -0.07091317
H    -4.04826004   1.34209462  -1.12259872
O     0.75153854  -1.19589634   0.60351122
H     0.31183931  -1.35277281  -0.28421235
H    -0.14163275  -1.10844379   1.05255761
6
# step=   713 energy=-149.92796670
O    -4.27543107   0.54657212  -0.56764182
H    -5.07027952   0.91327676  -0.07678264
H    -4.05934073   1.35781673  -1.11797438
O     0.75306994  -1.19612996   0.60498064
H     0.32529586  -1.35371179  -0.30135510
H    -0.15435703  -1.11263417   1.05748236
6
# step=   714 energy=-149.92709072
O    -4.27652144   0.54566624  -0.56827813
H    -5.06689699   0.92268497  -0.08333504
H    -4.07046071   1.37175464  -1.11251711
O     0.75413133  -1.19638599   0.60630779
H     0.34222681  -1.35441582  -0.31706979
H    -0.16308680  -1.11668575   1.06323867
6
# step=   715 energy=-149.92635074
O    -4.27768299   0.54501825  -0.56896863
H    -5.06259042   0.93066781  -0.09001823
H    -4.08133311   1.38298246  -1.10605343
O     0.75466271  -1.19666841   0.60747573
H     0.36261427  -1.35464527  -0.32999679
H    -0.16682571  -1.12078040   1.06874627
6
# step=   716 energy=-149.92617408
O    -4.27889843   0.54467946  -0.56975062
H    -5.05801154   0.93701995  -0.09620741
H    -4.09160122   1.39089090  -1.09861946
O     0.75465614  -1.19697958   0.60847838
H     0.38617466  -1.35424366  -0.33920650
H    -0.16514469  -1.12504321   1.07318060
6
# step=   717 energy=-149.92665187
O    -4.28014936   0.54467321  -0.57064843
H    -5.05387333   0.94161100  -0.10126173
H    -4.10085157   1.39523867  -1.09046869
O     0.75415588  -1.19731946   0.60932168
H     0.41237318  -1.35314352  -0.34424993
H    -0.15821223  -1.12954413   1.07599971
6
# step=   718 energy=-149.92750371
O    -4.28142057   0.54499489  -0.57167001
H    -5.05084981   0.94435903  -0.10459483
H    -4.10864126   1.39617704  -1.08205453
O     0.75325690  -1.19768509   0.61002410
H     0.44045707  -1.35136775  -0.34518795
H    -0.14680684  -1.13430304   1.07696324
6
# step=   719 energy=-149.92819708
O    -4.28270502   0.54561456  -0.57280522
H    -5.04946811   0.94520335  -0.10575191
H    -4.11453773   1.39423928  -1.07398574
O     0.75210026  -1.19807056   0.61061646
H     0.46951926  -1.34902552  -0.34259463
H    -0.13229679  -1.13929901   1.07614387
6
# step=   720 energy=-149.92820616
O    -4.28400757   0.54648238  -0.57402630
H    -5.05001757   0.94408191  -0.10447539
H    -4.11816137   1.39028051  -1.06695852
O     0.75086371  -1.19846717   0.61114041
H     0.49858186  -1.34630062  -0.33751386
H    -0.11656063  -1.14448313   1.07391349
6
# step=   721 energy=-149.92733454
O    -4.28534609   0.54753642  -0.57529110
H    -5.05249942   0.94092328  -0.10074358
H    -4.11922587   1.38536342  -1.06166924
O     0.74974612  -1.19886383   0.61164587
H     0.52668568  -1.34343058  -0.33135244
H    -0.10182037  -1.14979545   1.07088028
6
# step=   722 energy=-149.92592684
O    -4.28674917   0.54871217  -0.57654940
H    -5.05663018   0.93565949  -0.09477362
H    -4.11757484   1.38059431  -1.05871214
O     0.74894476  -1.19924777   0.61218820
H     0.55297661  -1.34067529  -0.32569701
H    -0.09036056  -1.15518682   1.06775332
6
# step=   723 energy=-149.92475360
O    -4.28825080   0.54995273  -0.57775163
H    -5.06189725   0.92825620  -0.08698778
H    -4.11321221   1.37693045  -1.05847380
O     0.74862709  -1.19960557   0.61282530
H     0.57677329  -1.33827682  -0.32205932
H    -0.08414394  -1.16064233   1.06513343
6
# step=   724 energy=-149.92453197
O    -4.28988246   0.55121711  -0.57885767
H    -5.06764874   0.91875381  -0.07795526
H    -4.10632567   1.37500124  -1.06104452
O     0.74890310  -1.19992459   0.61361391
H     0.59759153  -1.33641803  -0.32158870
H    -0.08440694  -1.16619526   1.06328004
6
# step=   725 energy=-149.92539934
O    -4.29166345   0.55248369  -0.57984328
H    -5.07319282   0.90731576  -0.06832836
H    -4.09730631   1.37499176  -1.06616367
O     0.74980607  -1.20019466   0.61460272
H     0.61512223  -1.33519029  -0.32481848
H    -0.09136454  -1.17191966   1.06195078
6
# step=   726 energy=-149.92680164
O    -4.29359406   0.55374945  -0.58070432
H    -5.07790096   0.89425779  -0.05876663
H    -4.08674481   1.37662297  -1.07322278
O     0.75128895  -1.20041031   0.61582328
H     0.62921731  -1.33457702  -0.33152610
H    -0.10414919  -1.17790793   1.06040337
6
# step=   727 energy=-149.92791120
O    -4.29565520   0.55502565  -0.58145794
H    -5.08130336   0.88003220  -0.04984820
H    -4.07537793   1.37924870  -1.08135159
O     0.75324167  -1.20057255   0.61728322
H     0.63989156  -1.33446200  -0.34078847
H    -0.12105330  -1.18424636   1.05757511
6
# step=   728 energy=-149.92818365
O    -4.29781103   0.55632930  -0.58213863
H    -5.08314673   0.86519186  -0.04200485
H    -4.06400965   1.38203573  -1.08955640
O     0.75552009  -1.20068881   0.61896451
H     0.64730287  -1.33466172  -0.35121107
H    -0.13995094  -1.19099167   1.05234964
6
# step=   729 energy=-149.92762254
O    -4.30001301   0.55767356  -0.58279132
H    -5.08341062   0.85035147  -0.03549136
H    -4.05343244   1.38415713  -1.09686140
O     0.75797303  -1.20077128   0.62082730
H     0.65172423  -1.33496616  -0.36122326
H    -0.15870110  -1.19815681   1.04379165
6
# step=   730 energy=-149.92667208
O    -4.30220506   0.55906030  -0.58346423
H    -5.08229084   0.83614770  -0.03038261
H    -4.04435848   1.38494979  -1.10242485
O     0.76046143  -1.20083476   0.62281774
H     0.65352096  -1.33517427  -0.36934631
H    -0.17543292  -1.20570985   1.03128904
6
# step=   731 energy=-149.92591783
O    -4.30432920   0.56047585  -0.58420245
H    -5.08015716   0.82320082  -0.02659355
H    -4.03736664   1.38401950  -1.10561989
O     0.76286912  -1.20089447   0.62487661
H     0.65313225  -1.33511876  -0.37438870
H    -0.18870670  -1.21358164   1.01460686
6
# step=   732 energy=-149.92579062
O    -4.30633092   0.56188915  -0.58504208
H    -5.07749157   0.81208105  -0.02391839
H    -4.03286616   1.38129998  -1.10608329
O     0.76510784  -1.20096432   0.62694648
H     0.65105634  -1.33468060  -0.37556747
H    -0.19758870  -1.22167557   0.99389007
6
# step=   733 energy=-149.92637789
O    -4.30816458   0.56325164  -0.58600488
H    -5.07481311   0.80327729  -0.02208327
H    -4.03107144   1.37707991  -1.10374265
O     0.76711917  -1.20105548   0.62897667
H     0.64784008  -1.33379672  -0.37258021
H    -0.20168844  -1.22987694   0.96964884
6
# step=   734 energy=-149.92738060
O    -4.30979942   0.56449961  -0.58709385
H    -5.07259474   0.79716129  -0.02080503
H    -4.03198466   1.37200113  -1.09882550
O     0.76887689  -1.20117526   0.63092781
H     0.64406916  -1.33246340  -0.36564758
H    -0.20118868  -1.23806655   0.94272618
6
# step=   735 energy=-149.92823362
O    -4.31122521   0.56555917  -0.58829156
H    -5.07118506   0.79395482  -0.01984777
H    -4.03539741   1.36701583  -1.09183662
O     0.77038921  -1.20132628   0.63277668
H     0.64035332  -1.33073472  -0.35551908
H    -0.19685432  -1.24614019   0.91423296
6
# step=   736 energy=-149.92837735
O    -4.31245435   0.56635353  -0.58956198
H    -5.07075522   0.79371438  -0.01906577
H    -4.04092429   1.36329057  -1.08349128
O     0.77169804  -1.20150608   0.63451947
H     0.63730839  -1.32871485  -0.34342774
H    -0.18998749  -1.25402723   0.88545630
6
# step=   737 energy=-149.92759186
O    -4.31351890   0.56681271  -0.59085665
H    -5.07128483   0.79633609  -0.01842106
H    -4.04807000   1.36204823  -1.07460233
O     0.77287246  -1.20170750   0.63617218
H     0.63553839  -1.32654332  -0.33098134
H    -0.18229992  -1.26170238   0.85774761
6
# step=   738 energy=-149.92620594
O    -4.31446348   0.56688589  -0.59212477
H    -5.07258772   0.80157518  -0.01797218
H    -4.05632150   1.36435191  -1.06593106
O     0.77399529  -1.20192002   0.63776714
H     0.63561869  -1.32437168  -0.31997343
H    -0.17567798  -1.26918717   0.83239010
6
# step=   739 energy=-149.92497819
O    -4.31533590   0.56655455  -0.59332491
H    -5.07436616   0.80907424  -0.01784067
H    -4.06524321   1.37086614  -1.05803337
O     0.77514309  -1.20213260   0.63934473
H     0.63808001  -1.32233238  -0.31211178
H    -0.17184520  -1.27653728   0.81045993
6
# step=   740 energy=-149.92463663
O    -4.31617850   0.56584281  -0.59443408
H    -5.07627529   0.81839023  -0.01816775
H    -4.07454027   1.38166193  -1.05115344
O     0.77636314  -1.20233725   0.64094011
H     0.64339009  -1.32050616  -0.30870089
H    -0.17198836  -1.28381287   0.79271695
6
# step=   741 energy=-149.92537542
O    -4.31702249   0.56482126  -0.59545039
H    -5.07798053   0.82900892  -0.01907212
H    -4.08406002   1.39612769  -1.04520841
O     0.77765512  -1.20253246   0.64256719
H     0.65192040  -1.31889796  -0.31035017
H    -0.17646132  -1.29103748   0.77955323
6
# step=   742 energy=-149.92671930
O    -4.31788709   0.56360159  -0.59639030
H    -5.07920387   0.84036048  -0.02061604
H    -4.09374572   1.41303681  -1.03986031
O     0.77896677  -1.20272500   0.64420807
H     0.66389664  -1.31742988  -0.31679606
H    -0.18468148  -1.29817079   0.77097937
6
# step=   743 energy=-149.92788025
O    -4.31878295   0.56232008  -0.59728276
H    -5.07975781   0.85185714  -0.02278593
H    -4.10357717   1.43078285  -1.03464257
O     0.78020818  -1.20292933   0.64581436
H     0.67936310  -1.31595589  -0.32694029
H    -0.19529140  -1.30511398   0.76665445
6
# step=   744 energy=-149.92828898
O    -4.31971630   0.56111720  -0.59816141
H    -5.07956179   0.86293115  -0.02548776
H    -4.11351178   1.44767757  -1.02909993
O     0.78127597  -1.20316450   0.64731786
H     0.69817006  -1.31429626  -0.33910222
H    -0.20651059  -1.31173356   0.76597797
6
# step=   745 energy=-149.92788874
O    -4.32069175   0.56012015  -0.59905759
H    -5.07864338   0.87305989  -0.02855188
H    -4.12344225   1.46220585  -1.02289756
O     0.78207686  -1.20344991   0.64864526
H     0.71997984  -1.31227722  -0.35136302
H    -0.21651545  -1.31789031   0.76820106
6
# step=   746 energy=-149.92706561
O    -4.32171367   0.55943085  -0.59999573
H    -5.07712951   0.88178202  -0.03174373
H    -4.13317947   1.47320098  -1.01588220
O     0.78254458  -1.20380159   0.64973209
H     0.74429202  -1.30976255  -0.36188407
H    -0.22373721  -1.32346657   0.77251959
6
# step=   747 energy=-149.92636165
O    -4.32278680   0.55911904  -0.60099099
H    -5.07523017   0.88870632  -0.03477917
H    -4.14245490   1.47994408  -1.00810305
O     0.78264876  -1.20422959   0.65053305
H     0.77048151  -1.30667247  -0.36913859
H    -0.22704733  -1.32838703   0.77813928
6
# step=   748 energy=-149.92617577
O    -4.32391631   0.55921907  -0.60204795
H    -5.07321560   0.89351479  -0.03734404
H    -4.15093274   1.48220946  -0.99980849
O     0.78239771  -1.20473649   0.65102787
H     0.79783790  -1.30299147  -0.37205049
H    -0.22585154  -1.33263204   0.78431570
6
# step=   749 energy=-149.92658063
O    -4.32510778   0.55972871  -0.60315979
H    -5.07138660   0.89596393  -0.03911936
H    -4.15822802   1.48027810  -0.99142874
O     0.78183798  -1.20531648   0.65122415
H     0.82560244  -1.29876953  -0.37006857
H    -0.22013063  -1.33624617   0.79037823
6
# step=   750 energy=-149.92730207
O    -4.32636760   0.56060966  -0.60430821
H    -5.07003743   0.89588936  -0.03981410
H    -4.16393405   1.47492344  -0.98354247
O     0.78105168  -1.20595517   0.65115832
H     0.85301610  -1.29411779  -0.36320384
H    -0.21044929  -1.33934485   0.79575002
6
# step=   751 energy=-149.92786039
O    -4.32770387   0.56179142  -0.60546494
H    -5.06941390   0.89321164  -0.03920230
H    -4.16765986   1.46734736  -0.97682103
O     0.78015093  -1.20663023   0.65089495
H     0.87938494  -1.28919834  -0.35203338
H    -0.19792358  -1.34211771   0.79996794
6
# step=   752 energy=-149.92782747
O    -4.32912680   0.56317990  -0.60659477
H    -5.06967494   0.88793987  -0.03715677
H    -4.16907278   1.45904263  -0.97194992
O     0.77926867  -1.20731284   0.65052389
H     0.90414598  -1.28420993  -0.33766276
H    -0.18412773  -1.34482347   0.80269489
6
# step=   753 energy=-149.92709159
O    -4.33064786   0.56467103  -0.60766059
H    -5.07086649   0.88017419  -0.03367190
H    -4.16794456   1.45157462  -0.96952908
O     0.77854525  -1.20797001   0.65015543
H     0.92691673  -1.27937100  -0.32163878
H    -0.17092336  -1.34777214   0.80371376
6
# step=   754 energy=-149.92597317
O    -4.33227741   0.56616814  -0.60863010
H    -5.07291410   0.87010800  -0.02886993
H    -4.16419916   1.44630213  -0.96995994
O     0.77811096  -1.20856788   0.64991281
H     0.94751693  -1.27490075  -0.30579764
H    -0.16019999  -1.35129152   0.80289554
6
# step=   755 energy=-149.92507324
O    -4.33402107   0.56759926  -0.60948305
H    -5.07563655   0.85802860  -0.02298838
H    -4.15795575   1.44409900  -0.97334177
O     0.77806681  -1.20907599   0.64992158
H     0.96594810  -1.27099909  -0.29203684
H    -0.15354718  -1.35567876   0.80014194
6
# step=   756 energy=-149.92490486
O    -4.33587528   0.56892848  -0.61021650
H    -5.07877591   0.84431802  -0.01635315
H    -4.14955720   1.44516789  -0.97940832
O     0.77846786  -1.20947171   0.65029491
H     0.98231983  -1.26782880  -0.28202281
H    -0.15192758  -1.36114341   0.79532120
6
# step=   757 energy=-149.92555028
O    -4.33782333   0.57015678  -0.61084624
H    -5.08203516   0.82945420  -0.00934510
H    -4.13957322   1.44901683  -0.98752885
O     0.77931456  -1.20974379   0.65111565
H     0.99673908  -1.26550124  -0.27687807
H    -0.15544987  -1.36775557   0.78823279
6
# step=   758 energy=-149.92660621
O    -4.33983506   0.57131359  -0.61140414
H    -5.08511888   0.81399416  -0.00235933
H    -4.12875940   1.45460992  -0.99678754
O     0.78055578  -1.20989452   0.65241909
H     1.00921813  -1.26406471  -0.27692659
H    -0.16333099  -1.37542240   0.77862556
6
# step=   759 energy=-149.92746440
O    -4.34187143   0.57244285  -0.61193256
H    -5.08777105   0.79853064   0.00423981
H    -4.11796753   1.46064088  -1.00612936
O     0.78210400  -1.20993916   0.65418493
H     1.01964357  -1.26350043  -0.28161662
H    -0.17408571  -1.38390803   0.76625964
6
# step=   760 energy=-149.92770276
O    -4.34389048   0.57358802  -0.61247696
H    -5.08980010   0.78364711   0.01015206
H    -4.10804211   1.46582446  -1.01451812
O     0.78385521  -1.20990278   0.65634220
H     1.02780808  -1.26373016  -0.28967204
H    -0.18586104  -1.39288308   0.75098557
6
# step=   761 energy=-149.92730647
O    -4.34585238   0.57478013  -0.61307925
H    -5.09108890   0.76988490   0.01515784
H    -4.09973324   1.46912084  -1.02106174
O     0.78570565  -1.20981587   0.65878415
H     1.03348775  -1.26463084  -0.29939289
H    -0.19677742  -1.40198104   0.73280980
6
# step=   762 energy=-149.92661671
O    -4.34772321   0.57603073  -0.61377295
H    -5.09159390   0.75772138   0.01912212
H    -4.09363540   1.46987091  -1.02509269
O     0.78756244  -1.20971026   0.66138663
H     1.03653163  -1.26605029  -0.30898301
H    -0.20518961  -1.41084744   0.71192611
6
# step=   763 energy=-149.92609777
O    -4.34947739   0.57732855  -0.61458012
H    -5.09133795   0.74755636   0.02199034
H    -4.09014997   1.46786021  -1.02621065
O     0.78934890  -1.20961591   0.66402487
H     1.03693306  -1.26782085  -0.31681822
H    -0.20984877  -1.41917593   0.68871393
6
# step=   764 energy=-149.92607951
O    -4.35109904   0.57863856  -0.61550942
H    -5.09040042   0.73970434   0.02378026
H    -4.08946484   1.46333927  -1.02430073
O     0.79100662  -1.20955856   0.66658571
H     1.03487234  -1.26976962  -0.32162671
H    -0.20998786  -1.42673192   0.66371784
6
# step=   765 energy=-149.92659334
O    -4.35258252   0.57990260  -0.61655510
H    -5.08890716   0.73438713   0.02457321
H    -4.09154430   1.45701692  -1.01953670
O     0.79249626  -1.20955804   0.66897609
H     1.03073648  -1.27172594  -0.32259833
H    -0.20536432  -1.43336897   0.63761732
6
# step=   766 energy=-149.92735923
O    -4.35393283   0.58104266  -0.61769747
H    -5.08702070   0.73172338   0.02450612
H    -4.09613245   1.45001791  -1.01236482
O     0.79379840  -1.20962687   0.67112984
H     1.02512177  -1.27352801  -0.31944842
H    -0.19627715  -1.43904387   0.61118064
6
# step=   767 energy=-149.92792836
O    -4.35516499   0.58196811  -0.61890589
H    -5.08492965   0.73172090   0.02376254
H    -4.10278374   1.44377878  -1.00345151
O     0.79491407  -1.20976935   0.67301350
H     1.01881916  -1.27502939  -0.31244399
H    -0.18355054  -1.44382827   0.58520255
6
# step=   768 energy=-149.92792447
O    -4.35630114   0.58258749  -0.62014449
H    -5.08283753   0.73427812   0.02256102
H    -4.11092967   1.43986046  -0.99358485
O     0.79586331  -1.20998142   0.67462956
H     1.01278382  -1.27610407  -0.30238682
H    -0.16847084  -1.44790962   0.56044098
6
# step=   769 energy=-149.92726496
O    -4.35736551   0.58282504  -0.62138001
H    -5.08095032   0.73919425   0.02114038
H    -4.11997678   1.43967637  -0.98353632
O     0.79668081  -1.21025152   0.67601541
H     1.00808756  -1.27664900  -0.29054257
H    -0.15266463  -1.45157584   0.53756359
6
# step=   770 energy=-149.92622997
O    -4.35837884   0.58263948  -0.62259000
H    -5.07946032   0.74618381   0.01974067
H    -4.12941422   1.44417694  -0.97391169
O     0.79740844  -1.21056299   0.67723680
H     1.00584816  -1.27658332  -0.27849571
H    -0.13790670  -1.45517932   0.51710924
6
# step=   771 energy=-149.92532636
O    -4.35935454   0.58203966  -0.62376812
H    -5.07852459   0.75489122   0.01857908
H    -4.13889425   1.45358474  -0.96504093
O     0.79808529  -1.21089783   0.67837416
H     1.00713013  -1.27584381  -0.26791347
H    -0.12586278  -1.45907945   0.49947009
6
# step=   772 energy=-149.92501713
O    -4.36029861   0.58109049  -0.62492365
H    -5.07823917   0.76489975   0.01782255
H    -4.14825121   1.46728710  -0.95695490
O     0.79873725  -1.21124157   0.67950215
H     1.01281854  -1.27437777  -0.26023174
H    -0.11780596  -1.46356973   0.48489939
6
# step=   773 energy=-149.92545937
O    -4.36121297   0.57990645  -0.62607490
H    -5.07861425   0.77573218   0.01756221
H    -4.15745397   1.48393275  -0.94945643
O     0.79936956  -1.21158759   0.68066692
H     1.02347696  -1.27213830  -0.25632280
H    -0.11437379  -1.46880629   0.47353604
6
# step=   774 energy=-149.92640072
O    -4.36210085   0.57863440  -0.62724024
H    -5.07955908   0.78685478   0.01779695
H    -4.16652638   1.50170034  -0.94224341
O     0.79996596  -1.21193957   0.68186930
H     1.03922319  -1.26908670  -0.25624760
H    -0.11543914  -1.47476370   0.46542050
6
# step=   775 energy=-149.92732593
O    -4.36297165   0.57743049  -0.62843118
H    -5.08088727   0.79769838   0.01843472
H    -4.17547817   1.51865118  -0.93502757
O     0.80049541  -1.21231080   0.68306250
H     1.05968161  -1.26520222  -0.25921018
H    -0.12015572  -1.48124039   0.46049332
6
# step=   776 energy=-149.92777716
O    -4.36384289   0.57643882  -0.62964906
H    -5.08234546   0.80768870   0.01931523
H    -4.18426252   1.53304669  -0.92761765
O     0.80092302  -1.21272055   0.68416500
H     1.08403745  -1.26049588  -0.26375232
H    -0.12717105  -1.48790974   0.45859092
6
# step=   777 energy=-149.92761801
O    -4.36473882   0.57577649  -0.63088503
H    -5.08365754   0.81627593   0.02024766
H    -4.19275941   1.54355982  -0.91996010
O     0.80122070  -1.21318884   0.68508224
H     1.11116379  -1.25502312  -0.26809619
H    -0.13491652  -1.49439310   0.45944466
6
# step=   778 energy=-149.92706662
O    -4.36568729   0.57552511  -0.63212228
H    -5.08457272   0.82296164   0.02105324
H    -4.20077746   1.54938477  -0.91214691
O     0.80137435  -1.21373161   0.68572841
H     1.13977602  -1.24888958  -0.27049605
H    -0.14187824  -1.50033080   0.46268287
6
# step=   779 energy=-149.92651677
O    -4.36671623   0.57572654  -0.63333887
H    -5.08490766   0.82732240   0.02160315
H    -4.20806498   1.55027881  -0.90440502
O     0.80138716  -1.21435742   0.68604277
H     1.16857528  -1.24224817  -0.26950601
H    -0.14679697  -1.50543685   0.46783683
6
# step=   780 energy=-149.92629351
O    -4.36785043   0.57638128  -0.63451047
H    -5.08457645   0.82902996   0.02184593
H    -4.21432410   1.54656664  -0.89707797
O     0.80127988  -1.21506566   0.68599884
H     1.19635979  -1.23529046  -0.26414032
H    -0.14878996  -1.50953395   0.47434972
6
# step=   781 energy=-149.92648478
O    -4.36910899   0.57744840  -0.63561246
H    -5.08360593   0.82786949   0.02182156
H    -4.21922762   1.53911998  -0.89060216
O     0.80108910  -1.21584588   0.68560835
H     1.22210543  -1.22823509  -0.25395037
H    -0.14741307  -1.51257267   0.48158809
6
# step=   782 energy=-149.92691923
O    -4.37050373   0.57884812  -0.63662201
H    -5.08213545   0.82375669   0.02166118
H    -4.22244280   1.52929765  -0.88547159
O     0.80086421  -1.21667807   0.68492157
H     1.24503305  -1.22131323  -0.23904999
H    -0.14268201  -1.51463990   0.48885883
6
# step=   783 energy=-149.92728506
O    -4.37203834   0.58046963  -0.63752065
H    -5.08040034   0.81674951   0.02157232
H    -4.22366535   1.51881150  -0.88218473
O     0.80066279  -1.21753406   0.68402525
H     1.26467208  -1.21475077  -0.22010496
H    -0.13505710  -1.51595728   0.49543506
6
# step=   784 energy=-149.92731692
O    -4.37370811   0.58218571  -0.63829724
H    -5.07870039   0.80704968   0.02181087
H    -4.22266336   1.50949245  -0.88117196
O     0.80054426  -1.21837973   0.68303806
H     1.28091143  -1.20874954  -0.19829017
H    -0.12538556  -1.51686630   0.50058951
6
# step=   785 energy=-149.92693969
O    -4.37549959   0.58387361  -0.63895123
H    -5.07735755   0.79499344   0.02264354
H    -4.21932960   1.50296810  -0.88270871
O     0.80056207  -1.21917808   0.68210345
H     1.29402248  -1.20347108  -0.17521064
H    -0.11479448  -1.51779701   0.50363166
6
# step=   786 energy=-149.92629163
O    -4.37739035   0.58543778  -0.63949538
H    -5.07666789   0.78103167   0.02430518
H    -4.21373520   1.50031932  -0.88682943
O     0.80075528  -1.21989311   0.68137910
H     1.30463492  -1.19902559  -0.15276970
H    -0.10453026  -1.51921816   0.50394580
6
# step=   787 energy=-149.92564477
O    -4.37934941   0.58682715  -0.63995668
H    -5.07685373   0.76570105   0.02695637
H    -4.20616886   1.50183180  -0.89327017
O     0.80114154  -1.22049407   0.68102175
H     1.31364121  -1.19546957  -0.13296332
H    -0.09575219  -1.52157050   0.50102734
6
# step=   788 energy=-149.92528984
O    -4.38133922   0.58804003  -0.64037397
H    -5.07802193   0.74959038   0.03064618
H    -4.19714240   1.50695005  -0.90146676
O     0.80171431  -1.22095952   0.68116720
H     1.32201398  -1.19281524  -0.11759581
H    -0.08931066  -1.52519132   0.49451604
6
# step=   789 energy=-149.92540843
O    -4.38331926   0.58911489  -0.64079214
H    -5.08013486   0.73330811   0.03528569
H    -4.18735226   1.51445367  -0.91061691
O     0.80244633  -1.22128012   0.68190765
H     1.33055759  -1.19105007  -0.10795326
H    -0.08556322  -1.53024594   0.48422760
6
# step=   790 energy=-149.92595108
O    -4.38525098   0.59011222  -0.64125455
H    -5.08300101   0.71745250   0.04063960
H    -4.17760237   1.52277499  -0.91978969
O     0.80329844  -1.22145985   0.68327211
H     1.33967055  -1.19015740  -0.10452274
H    -0.08428604  -1.53668600   0.47018329
6
# step=   791 energy=-149.92662670
O    -4.38710310   0.59109516  -0.64179620
H    -5.08629213   0.70258116   0.04634367
H    -4.16870527   1.53034047  -0.92805336
O     0.80422987  -1.22151524   0.68521788
H     1.34922597  -1.19012662  -0.10687324
H    -0.08471633  -1.54425155   0.45262743
6
# step=   792 energy=-149.92707791
O    -4.38885547   0.59211434  -0.64243971
H    -5.08958700   0.68918456   0.05194843
H    -4.16138795   1.53584327  -0.93458853
O     0.80520543  -1.22147313   0.68763839
H     1.35863159  -1.19094738  -0.11376782
H    -0.08571560  -1.55251783   0.43202054
6
# step=   793 energy=-149.92712104
O    -4.39050001   0.59319870  -0.64319453
H    -5.09243185   0.67767066   0.05697885
H    -4.15622347   1.53840937  -0.93876485
O     0.80619746  -1.22136725   0.69038356
H     1.36703182  -1.19259239  -0.12345571
H    -0.08599531  -1.56096872   0.40900858
6
# step=   794 energy=-149.92684806
O    -4.39203934   0.59435114  -0.64405835
H    -5.09440407   0.66835923   0.06099719
H    -4.15359187   1.53767191  -0.94018083
O     0.80718438  -1.22123465   0.69328438
H     1.37355158  -1.19499920  -0.13401580
H    -0.08433573  -1.56907381   0.38437431
6
# step=   795 energy=-149.92652897
O    -4.39348414   0.59554763  -0.64501982
H    -5.09516946   0.66147996   0.06365987
H    -4.15366262   1.53378816  -0.93867795
O     0.80814864  -1.22111221   0.69617458
H     1.37749612  -1.19805870  -0.14364514
H    -0.07975561  -1.57635411   0.35897829
6
# step=   796 energy=-149.92641731
O    -4.39485017   0.59673809  -0.64606125
H    -5.09452768   0.65717063   0.06476339
H    -4.15639103   1.52742387  -0.93433891
O     0.80907561  -1.22103365   0.69890635
H     1.37847501  -1.20161255  -0.15085265
H    -0.07162283  -1.58243096   0.33369786
6
# step=   797 energy=-149.92659905
O    -4.39615538   0.59784946  -0.64716159
H    -5.09244496   0.65547348   0.06427801
H    -4.16152662   1.51970707  -0.92747251
O     0.80995328  -1.22102706   0.70136083
H     1.37646174  -1.20545710  -0.15457065
H    -0.05971609  -1.58705978   0.30936861
6
# step=   798 energy=-149.92696401
O    -4.39741689   0.59879203  -0.64829977
H    -5.08907252   0.65633087   0.06236780
H    -4.16863960   1.51212901  -0.91857808
O     0.81077249  -1.22111289   0.70345530
H     1.37181266  -1.20935128  -0.15421403
H    -0.04424958  -1.59015281   0.28672721
6
# step=   799 energy=-149.92729202
O    -4.39864787   0.59947106  -0.64945909
H    -5.08474649   0.65958508   0.05939204
H    -4.17717567   1.50636057  -0.90827872
O     0.81152705  -1.22130259   0.70514837
H     1.36526049  -1.21302736  -0.14970685
H    -0.02586485  -1.59179174   0.26635639
6
# step=   800 energy=-149.92737786
O    -4.39985398   0.59980387  -0.65063197
H    -5.07996329   0.66498619   0.05588110
H    -4.18654081   1.50397250  -0.89722319
O     0.81221325  -1.22159799   0.70644274
H     1.35788583  -1.21620310  -0.14147896
H    -0.00558954  -1.59222771   0.24864014
6
# step=   801 energy=-149.92711435
O    -4.40103097   0.59974006  -0.65182343
H    -5.07532491   0.67220776   0.05248035
H    -4.19620000   1.50609703  -0.88597623
O     0.81282877  -1.22199152   0.70738415
H     1.35105985  -1.21859503  -0.13042245
H     0.01524078  -1.59186448   0.23373821
6
# step=   802 energy=-149.92652452
O    -4.40216506   0.59927907  -0.65305080
H    -5.07145260   0.68086578   0.04985998
H    -4.20575816   1.51312932  -0.87493383
O     0.81337151  -1.22246778   0.70805481
H     1.34634223  -1.21993354  -0.11778614
H     0.03510576  -1.59122017   0.22158717
6
# step=   803 energy=-149.92578809
O    -4.40323784   0.59847760  -0.65433810
H    -5.06887764   0.69053529   0.04859913
H    -4.21499197   1.52459185  -0.86429735
O     0.81383912  -1.22300642   0.70855934
H     1.34531602  -1.21998029  -0.10498515
H     0.05247355  -1.59086369   0.21193489
6
# step=   804 energy=-149.92523394
O    -4.40423462   0.59744314  -0.65570615
H    -5.06793238   0.70075954   0.04906846
H    -4.22382337   1.53922801  -0.85411343
O     0.81423005  -1.22358620   0.70900304
H     1.34935627  -1.21854832  -0.09332503
H     0.06601304  -1.59132816   0.20441113
6
# step=   805 energy=-149.92519330
O    -4.40515272   0.59631646  -0.65716200
H    -5.06867396   0.71105089   0.05134487
H    -4.23225439   1.55527880  -0.84435404
O     0.81454629  -1.22418952   0.70946623
H     1.35936203  -1.21552455  -0.08369202
H     0.07480975  -1.59301421   0.19862496
6
# step=   806 energy=-149.92574508
O    -4.40600618   0.59524994  -0.65869197
H    -5.07086586   0.72089015   0.05518640
H    -4.24029781   1.57082572  -0.83499638
O     0.81479677  -1.22480578   0.70998270
H     1.37551991  -1.21089390  -0.07631210
H     0.07853488  -1.59610649   0.19426176
6
# step=   807 energy=-149.92659865
O    -4.40682548   0.59438707  -0.66026145
H    -5.07402538   0.72973974   0.06007860
H    -4.24793161   1.58410427  -0.82607162
O     0.81499945  -1.22543284   0.71053183
H     1.39719813  -1.20475766  -0.07068610
H     0.07751570  -1.60053206   0.19114450
6
# step=   808 energy=-149.92728161
O    -4.40765305   0.59384633  -0.66182112
H    -5.07752433   0.73707468   0.06534054
H    -4.25508311   1.59373630  -0.81767765
O     0.81518041  -1.22607599   0.71104827
H     1.42304138  -1.19733397  -0.06574483
H     0.07266885  -1.60598048   0.18923887
6
# step=   809 energy=-149.92747255
O    -4.40853650   0.59371100  -0.66331584
H    -5.08070938   0.74241833   0.07025466
H    -4.26163005   1.59886094  -0.80997182
O     0.81537003  -1.22674486   0.71144434
H     1.45122890  -1.18893796  -0.06015465
H     0.06531449  -1.61197746   0.18860728
6
# step=   810 energy=-149.92718353
O    -4.40952162   0.59402420  -0.66469305
H    -5.08300880   0.74537296   0.07418412
H    -4.26740788   1.59918448  -0.80315682
O     0.81559842  -1.22744951   0.71163471
H     1.47978498  -1.17994855  -0.05263746
H     0.05694348  -1.61798193   0.18933497
6
# step=   811 energy=-149.92668582
O    -4.41064700   0.59478727  -0.66590899
H    -5.08400922   0.74564301   0.07665909
H    -4.27221871   1.59498333  -0.79746537
O     0.81589172  -1.22819699   0.71155571
H     1.50684791  -1.17077118  -0.04220491
H     0.04900503  -1.62347752   0.19145509
6
# step=   812 energy=-149.92629671
O    -4.41194023   0.59596020  -0.66693295
H    -5.08350122   0.74305144   0.07743034
H    -4.27584124   1.58707825  -0.79314450
O     0.81627001  -1.22898904   0.71117654
H     1.53085689  -1.16180434  -0.02828295
H     0.04274962  -1.62804190   0.19489114
6
# step=   813 energy=-149.92619935
O    -4.41341546   0.59746447  -0.66774985
H    -5.08149934   0.73755153   0.07649535
H    -4.27804363   1.57677522  -0.79043745
O     0.81674611  -1.22982077   0.71050388
H     1.55066336  -1.15341286  -0.01075325
H     0.03912982  -1.63139114   0.19942214
6
# step=   814 energy=-149.92638740
O    -4.41507181   0.59918986  -0.66836184
H    -5.07824170   0.72923533   0.07410230
H    -4.27860442   1.56574684  -0.78955874
O     0.81732458  -1.23068046   0.70958229
H     1.56559690  -1.14590614   0.01005217
H     0.03874537  -1.63340434   0.20466840
6
# step=   815 energy=-149.92671915
O    -4.41689260   0.60100737  -0.66878933
H    -5.07416842   0.71833579   0.07073104
H    -4.27734549   1.55582202  -0.79065960
O     0.81800041  -1.23155013   0.70849196
H     1.57551069  -1.13951775   0.03338228
H     0.04181872  -1.63413387   0.21009557
6
# step=   816 energy=-149.92700162
O    -4.41884578   0.60278914  -0.66907071
H    -5.06987419   0.70521772   0.06704489
H    -4.27417724   1.54867921  -0.79378517
O     0.81875735  -1.23240699   0.70734433
H     1.58080950  -1.13438653   0.05811893
H     0.04819725  -1.63380267   0.21503492
6
# step=   817 energy=-149.92704432
O    -4.42088582   0.60443157  -0.66926015
H    -5.06603122   0.69035568   0.06380800
H    -4.26914986   1.54549908  -0.79883038
O     0.81956659  -1.23322548   0.70627529
H     1.58244398  -1.13054315   0.08285333
H     0.05738529  -1.63278698   0.21871820
6
# step=   818 energy=-149.92671121
O    -4.42295788   0.60587468  -0.66942238
H    -5.06328413   0.67430058   0.06176893
H    -4.26249562   1.54669047  -0.80550754
O     0.82038699  -1.23397962   0.70543505
H     1.58184165  -1.12790849   0.10600006
H     0.06861282  -1.63158142   0.22032723
6
# step=   819 energy=-149.92602839
O    -4.42500471   0.60710974  -0.66962451
H    -5.06212936   0.65764042   0.06152338
H    -4.25464148   1.55180728  -0.81334258
O     0.82116881  -1.23464543   0.70497368
H     1.58073721  -1.12631176   0.12596449
H     0.08094856  -1.63074293   0.21905924
6
# step=   820 energy=-149.92527726
O    -4.42697548   0.60817237  -0.66992579
H    -5.06280582   0.64096434   0.06338597
H    -4.24617881   1.55969655  -0.82170977
O     0.82186216  -1.23520315   0.70502215
H     1.58088090  -1.12553389   0.14136428
H     0.09345734  -1.63081241   0.21420919
6
# step=   821 energy=-149.92489219
O    -4.42883368   0.60912457  -0.67036839
H    -5.06522985   0.62484002   0.06730918
H    -4.23779663   1.56880576  -0.82989747
O     0.82242906  -1.23563908   0.70567090
H     1.58365961  -1.12537068   0.15127201
H     0.10538133  -1.63222094   0.20526751
6
# step=   822 energy=-149.92514706
O    -4.43056124   0.61003382  -0.67097173
H    -5.06899711   0.60980727   0.07287694
H    -4.23020075   1.57751989  -0.83718463
O     0.82285461  -1.23594726   0.70695048
H     1.58974292  -1.12569339   0.15541119
H     0.11630155  -1.63519671   0.19202783
6
# step=   823 energy=-149.92591129
O    -4.43215821   0.61095589  -0.67173212
H    -5.07345253   0.59637281   0.07937690
H    -4.22403596   1.58443665  -0.84291358
O     0.82315152  -1.23613164   0.70882041
H     1.59890541  -1.12647709   0.15423336
H     0.12623070  -1.63969836   0.17468196
6
# step=   824 energy=-149.92674232
O    -4.43363993   0.61192474  -0.67262748
H    -5.07781158   0.58498846   0.08593504
H    -4.21981897   1.58855293  -0.84655261
O     0.82335537  -1.23620798   0.71117281
H     1.61012324  -1.12778225   0.14883025
H     0.13560069  -1.64540515   0.15385329
6
# step=   825 energy=-149.92722187
O    -4.43503217   0.61294861  -0.67362512
H    -5.08129723   0.57602310   0.09167242
H    -4.21789413   1.58936133  -0.84773631
O     0.82351323  -1.23620394   0.71385066
H     1.62189686  -1.12970249   0.14070522
H     0.14513801  -1.65177448   0.13054146
6
# step=   826 energy=-149.92721549
O    -4.43636554   0.61400991  -0.67468954
H    -5.08325656   0.56974148   0.09584137
H    -4.21841527   1.58687518  -0.84628066
O     0.82367205  -1.23615636   0.71667262
H     1.63263631  -1.13230722   0.13150223
H     0.15567186  -1.65814412   0.10599905
6
# step=   827 energy=-149.92688207
O    -4.43767029   0.61506734  -0.67578863
H    -5.08324271   0.56628949   0.09792332
H    -4.22134554   1.58160955  -0.84218062
O     0.82387113  -1.23610679   0.71945677
H     1.64097118  -1.13560140   0.12278032
H     0.16794405  -1.66384438   0.08157808
6
# step=   828 energy=-149.92650798
O    -4.43897224   0.61605968  -0.67689839
H    -5.08106479   0.56568405   0.09769073
H    -4.22646975   1.57452961  -0.83559645
O     0.82413907  -1.23609656   0.72203911
H     1.64593848  -1.13950799   0.11586458
H     0.18246726  -1.66829362   0.05858102
6
# step=   829 energy=-149.92632733
O    -4.44028928   0.61691192  -0.67800635
H    -5.07681380   0.56780703   0.09524159
H    -4.23341925   1.56695666  -0.82682976
O     0.82449312  -1.23616248   0.72428619
H     1.64706952  -1.14386680   0.11176368
H     0.19944252  -1.67106588   0.03813843
6
# step=   830 energy=-149.92642594
O    -4.44162806   0.61754506  -0.67911434
H    -5.07086824   0.57240472   0.09101039
H    -4.24171345   1.56041002  -0.81628782
O     0.82493925  -1.23633370   0.72610324
H     1.64441780  -1.14844173   0.11112897
H     0.21872534  -1.67193270   0.02111739
6
# step=   831 energy=-149.92673071
O    -4.44298134   0.61789033  -0.68024021
H    -5.06387321   0.57909671   0.08574834
H    -4.25082082   1.55636967  -0.80443539
O     0.82547192  -1.23662951   0.72743955
H     1.63855840  -1.15293162   0.11423519
H     0.23982690  -1.67088579   0.00805379
6
# step=   832 energy=-149.92704316
O    -4.44432734   0.61790617  -0.68141697
H    -5.05667874   0.58739908   0.08045488
H    -4.26023322   1.55598210  -0.79174064
O     0.82607383  -1.23705809   0.72829166
H     1.63056541  -1.15698405   0.12097797
H     0.26194320  -1.66814434  -0.00089592
6
# step=   833 energy=-149.92710668
O    -4.44563293   0.61759308  -0.68268736
H    -5.05022516   0.59676242   0.07624364
H    -4.26953407   1.55978658  -0.77863061
O     0.82671642  -1.23761606   0.72870360
H     1.62195350  -1.16021339   0.13089756
H     0.28401039  -1.66414586  -0.00597907
6
# step=   834 energy=-149.92673527
O    -4.44686178   0.61700016  -0.68409286
H    -5.04537972   0.60661694   0.07414497
H    -4.27843658   1.56756725  -0.76547159
O     0.82736238  -1.23828899   0.72876208
H     1.61455757  -1.16222543   0.14324633
H     0.30478958  -1.65951539  -0.00783574
6
# step=   835 energy=-149.92597884
O    -4.44798601   0.61621984  -0.68565935
H    -5.04275643   0.61641231   0.07488107
H    -4.28678100   1.57839823  -0.75257609
O     0.82797157  -1.23905302   0.72858474
H     1.61032184  -1.16265169   0.15711729
H     0.32298716  -1.65500590  -0.00743719
6
# step=   836 energy=-149.92518639
O    -4.44899723   0.61537290  -0.68738435
H    -5.04257533   0.62564155   0.07868310
H    -4.29449996   1.59086058  -0.74022372
O     0.82851060  -1.23987797   0.72830047
H     1.61098983  -1.16119451   0.17163316
H     0.33741192  -1.65140439  -0.00595915
6
# step=   837 energy=-149.92483211
O    -4.44991204   0.61458960  -0.68923112
H    -5.04461484   0.63384621   0.08521957
H    -4.30157202   1.60333603  -0.72868168
O     0.82896428  -1.24073162   0.72802406
H     1.61773675  -1.15767976   0.18615629
H     0.34715480  -1.64940800  -0.00458978
6
# step=   838 energy=-149.92517504
O    -4.45076983   0.61399279  -0.69113150
H    -5.04827217   0.64061170   0.09366099
H    -4.30798076   1.61427749  -0.71821672
O     0.82934408  -1.24158464   0.72783197
H     1.63084516  -1.15210802   0.20044029
H     0.35176033  -1.64948951  -0.00430087
6
# step=   839 energy=-149.92603778
O    -4.45162479   0.61368464  -0.69299652
H    -5.05270339   0.64556977   0.10285248
H    -4.31369102   1.62241431  -0.70909117
O     0.82968901  -1.24241518   0.72774774
H     1.64955821  -1.14468638   0.21465299
H     0.35134916  -1.65178697  -0.00564255
6
# step=   840 energy=-149.92692677
O    -4.45253604   0.61373706  -0.69473226
H    -5.05699658   0.64841521   0.11154012
H    -4.31864407   1.62689264  -0.70154176
O     0.83005687  -1.24321242   0.72774300
H     1.67221143  -1.13581674   0.22926066
H     0.34663633  -1.65606342  -0.00863948
6
# step=   841 energy=-149.92738746
O    -4.45355874   0.61418644  -0.69625488
H    -5.06032790   0.64892310   0.11858197
H    -4.32276052   1.62734816  -0.69575803
O     0.83050964  -1.24397697   0.72775342
H     1.69659750  -1.12603917   0.24482778
H     0.33881690  -1.66176162  -0.01283698
6
# step=   842 energy=-149.92727895
O    -4.45473765   0.61503221  -0.69750096
H    -5.06206938   0.64695795   0.12309760
H    -4.32594328   1.62392234  -0.69186971
O     0.83109976  -1.24471811   0.72770159
H     1.72039541  -1.11595516   0.26182294
H     0.32936398  -1.66812869  -0.01746957
6
# step=   843 energy=-149.92678796
O    -4.45610321   0.61623803  -0.69843327
H    -5.06184806   0.64247606   0.12455410
H    -4.32808072   1.61724113  -0.68994062
O     0.83186161  -1.24544923   0.72751804
H     1.74152184  -1.10615561   0.28049568
H     0.31981298  -1.67436028  -0.02167421
6
# step=   844 energy=-149.92625124
O    -4.45766940   0.61773522  -0.69904337
H    -5.05957087   0.63552394   0.12280668
H    -4.32905211   1.60835998  -0.68996563
O     0.83280850  -1.24618347   0.72715569
H     1.75835312  -1.09716673   0.30083140
H     0.31158477  -1.67972323  -0.02467817
6
# step=   845 energy=-149.92595594
O    -4.45943250   0.61942922  -0.69935235
H    -5.05542863   0.62623506   0.11811131
H    -4.32873853   1.59866289  -0.69186926
O     0.83393282  -1.24693054   0.72659737
H     1.76983595  -1.08941532   0.32255783
H     0.30586654  -1.68363941  -0.02592880
6
# step=   846 energy=-149.92602531
O    -4.46137010   0.62120997  -0.69941005
H    -5.04988377   0.61482591   0.11111522
H    -4.32704320   1.58969637  -0.69550476
O     0.83520714  -1.24769489   0.72585841
H     1.77553285  -1.08320738   0.34517453
H     0.30354202  -1.68573408  -0.02516738
6
# step=   847 energy=-149.92639540
O    -4.46344110   0.62296731  -0.69929238
H    -5.04363470   0.60158893   0.10281509
H    -4.32392337   1.58293000  -0.70065339
O     0.83658520  -1.24847506   0.72498614
H     1.77564086  -1.07871195   0.36799341
H     0.30515214  -1.68586101  -0.02246385
6
# step=   848 energy=-149.92684419
O    -4.46558802   0.62460952  -0.69909528
H    -5.03754095   0.58687897   0.09445969
H    -4.31943008   1.57947320  -0.70702450
O     0.83800332  -1.24926387   0.72405725
H     1.77099231  -1.07594743   0.39019092
H     0.31087426  -1.68411306  -0.01822619
6
# step=   849 energy=-149.92706375
O    -4.46774296   0.62607991  -0.69892416
H    -5.03249787   0.57109567   0.08737927
H    -4.31374425   1.57983001  -0.71425707
O     0.83938321  -1.25004919   0.72317317
H     1.76301808  -1.07477559   0.41087374
H     0.32052044  -1.68081945  -0.01318882
6
# step=   850 energy=-149.92679910
O    -4.46983748   0.62736459  -0.69887913
H    -5.02926924   0.55467036   0.08275123
H    -4.30719301   1.58378971  -0.72192461
O     0.84063755  -1.25081459   0.72245310
H     1.75363850  -1.07491280   0.42915813
H     0.33356310  -1.67652527  -0.00837678
6
# step=   851 energy=-149.92603191
O    -4.47181468   0.62848793  -0.69903885
H    -5.02831411   0.53806473   0.08135173
H    -4.30023378   1.59050310  -0.72954802
O     0.84167986  -1.25153995   0.72202370
H     1.74504387  -1.07596909   0.44426288
H     0.34920161  -1.67194436  -0.00503293
6
# step=   852 energy=-149.92508389
O    -4.47363982   0.62949780  -0.69944773
H    -5.02966657   0.52177943   0.08337540
H    -4.29340651   1.59870955  -0.73661997
O     0.84243873  -1.25220237   0.72200484
H     1.73934766  -1.07752000   0.45561074
H     0.36648335  -1.66787374  -0.00448869
6
# step=   853 energy=-149.92449052
O    -4.47530519   0.63044746  -0.70011137
H    -5.03291851   0.50636169   0.08839591
H    -4.28726950   1.60701914  -0.74263792
O     0.84287357  -1.25277827   0.72249110
H     1.73815821  -1.07920103   0.46292073
H     0.38447629  -1.66506482  -0.00796307
6
# step=   854 energy=-149.92465386
O    -4.47682727   0.63138016  -0.70100094
H    -5.03731068   0.49240079   0.09547784
H    -4.28233864   1.61415735  -0.74713742
O     0.84298603  -1.25324747   0.72353117
H     1.74219488  -1.08079289   0.46626668
H     0.40245475  -1.66406614  -0.01629943
6
# step=   855 energy=-149.92552674
O    -4.47823852   0.63232003  -0.70206375
H    -5.04189218   0.48049714   0.10338694
H    -4.27903807   1.61913535  -0.74972402
O     0.84282160  -1.25359959   0.72510995
H     1.75110375  -1.08225970   0.46608614
H     0.42003770  -1.66507787  -0.02969687
6
# step=   856 energy=-149.92662647
O    -4.47957909   0.63326970  -0.70323669
H    -5.04570041   0.47119609   0.11083428
H    -4.27765987   1.62135625  -0.75010439
O     0.84246006  -1.25384018   0.72714226
H     1.76357426  -1.08372256   0.46312988
H     0.43723091  -1.66788016  -0.04755756
6
# step=   857 energy=-149.92738311
O    -4.48088993   0.63421237  -0.70445929
H    -5.04791533   0.46491641   0.11669250
H    -4.27834122   1.62066092  -0.74810512
O     0.84199879  -1.25399285   0.72948447
H     1.77771341  -1.08538482   0.45835324
H     0.45434192  -1.67188285  -0.06855202
6
# step=   858 energy=-149.92750760
O    -4.48220740   0.63511547  -0.70568314
H    -5.04796011   0.46190339   0.12014213
H    -4.28106251   1.61732008  -0.74367406
O     0.84153666  -1.25409545   0.73195864
H     1.79149289  -1.08744777   0.45278754
H     0.47180207  -1.67627405  -0.09087212
6
# step=   859 energy=-149.92710323
O    -4.48355924   0.63593507  -0.70687749
H    -5.04555292   0.46220510   0.12075241
H    -4.28565953   1.61198791  -0.73687134
O     0.84116290  -1.25419289   0.73437983
H     1.80310867  -1.09004848   0.44743047
H     0.48998581  -1.68019742  -0.11255762
6
# step=   860 energy=-149.92651699
O    -4.48496176   0.63662144  -0.70803243
H    -5.04072778   0.46566318   0.11851982
H    -4.29184544   1.60562136  -0.72785586
O     0.84095066  -1.25432987   0.73657905
H     1.81120102  -1.09322865   0.44317017
H     0.50909036  -1.68289902  -0.13178863
6
# step=   861 energy=-149.92610211
O    -4.48641744   0.63712640  -0.70916039
H    -5.03383605   0.47191414   0.11388023
H    -4.29924173   1.59935906  -0.71687074
O     0.84095340  -1.25454540   0.73841867
H     1.81495839  -1.09692627   0.44074042
H     0.52908466  -1.68382077  -0.14709102
6
# step=   862 energy=-149.92604453
O    -4.48791314   0.63741273  -0.71029576
H    -5.02552853   0.48040187   0.10769389
H    -4.30741782   1.59435593  -0.70423098
O     0.84120238  -1.25486958   0.73980125
H     1.81415317  -1.10097871   0.44069720
H     0.54970578  -1.68264740  -0.15745667
6
# step=   863 energy=-149.92630793
O    -4.48942011   0.63746454  -0.71149126
H    -5.01670360   0.49040860   0.10118134
H    -4.31593676   1.59158459  -0.69031431
O     0.84170461  -1.25532176   0.74067424
H     1.80914735  -1.10513023   0.44340671
H     0.57048141  -1.67932537  -0.16241018
6
# step=   864 energy=-149.92668118
O    -4.49089787   0.63729568  -0.71280932
H    -5.00839942   0.50111364   0.09577655
H    -4.32440164   1.59164199  -0.67555283
O     0.84244135  -1.25590966   0.74103272
H     1.80087702  -1.10904319   0.44904144
H     0.59076881  -1.67406675  -0.16204833
6
# step=   865 energy=-149.92688497
O    -4.49230307   0.63695247  -0.71430744
H    -5.00162250   0.51167921   0.09287982
H    -4.33249149   1.59462211  -0.66042290
O     0.84336867  -1.25662892   0.74092004
H     1.79079850  -1.11231560   0.45758872
H     0.60980631  -1.66734051  -0.15705589
6
# step=   866 energy=-149.92669684
O    -4.49360178   0.63650869  -0.71601966
H    -4.99714062   0.52134458   0.09354447
H    -4.33997715   1.60010370  -0.64543126
O     0.84442158  -1.25746308   0.74042493
H     1.78076540  -1.11450928   0.46887877
H     0.62677602  -1.65984674  -0.14868485
6
# step=   867 energy=-149.92607431
O    -4.49478125   0.63605448  -0.71794020
H    -4.99530478   0.52950008   0.09819201
H    -4.34671610   1.60725591  -0.63109450
O     0.84552342  -1.25838431   0.73967319
H     1.77280492  -1.11519405   0.48263640
H     0.64088171  -1.65246254  -0.13867036
6
# step=   868 energy=-149.92524599
O    -4.49585594   0.63568301  -0.72001654
H    -4.99597273   0.53572014   0.10647400
H    -4.35263396   1.61501828  -0.61791156
O     0.84660087  -1.25935554   0.73881186
H     1.76878275  -1.11401068   0.49855142
H     0.65144562  -1.64614524  -0.12904765
6
# step=   869 energy=-149.92466779
O    -4.49686523   0.63547900  -0.72215563
H    -4.99856641   0.53975384   0.11734306
H    -4.35770135   1.62229397  -0.60633520
O     0.84760186  -1.26033483   0.73798588
H     1.77000374  -1.11074632   0.51634616
H     0.65801839  -1.64178611  -0.12184670
6
# step=   870 energy=-149.92475568
O    -4.49786425   0.63551057  -0.72423968
H    -5.00222861   0.54149048   0.12929002
H    -4.36191154   1.62810999  -0.59674991
O     0.84850995  -1.26128199   0.73731108
H     1.77686618  -1.10540472   0.53580229
H     0.66048329  -1.64003106  -0.11869339
6
# step=   871 energy=-149.92554300
O    -4.49891217   0.63582386  -0.72614540
H    -5.00600926   0.54092448   0.14064280
H    -4.36526380   1.63173241  -0.58945421
O     0.84934797  -1.26216607   0.73685133
H     1.78871169  -1.09824518   0.55672606
H     0.65912900  -1.64111430  -0.12041816
6
# step=   872 energy=-149.92660204
O    -4.50006247   0.63643955  -0.72776299
H    -5.00902958   0.53813114   0.14984735
H    -4.36775600   1.63274630  -0.58463812
O     0.85016915  -1.26297189   0.73660865
H     1.80396261  -1.08976260   0.57888501
H     0.65465659  -1.64477527  -0.12683345
6
# step=   873 energy=-149.92735279
O    -4.50135705   0.63735196  -0.72901116
H    -5.01059912   0.53324580   0.15567966
H    -4.36938212   1.63109833  -0.58236531
O     0.85103970  -1.26370207   0.73653160
H     1.82050545  -1.08060582   0.60196122
H     0.64809380  -1.65031457  -0.13681128
6
# step=   874 energy=-149.92746924
O    -4.50282318   0.63853057  -0.72984513
H    -5.01027881   0.52644264   0.15736597
H    -4.37012984   1.62709769  -0.58257085
O     0.85202088  -1.26437318   0.73653777
H     1.83614274  -1.07147170   0.62553544
H     0.64064325  -1.65676494  -0.14862137
6
# step=   875 energy=-149.92703472
O    -4.50447217   0.63992344  -0.73025933
H    -5.00790503   0.51791563   0.15463375
H    -4.36997972   1.62138090  -0.58507031
O     0.85315648  -1.26500890   0.73653927
H     1.84895342  -1.06301259   0.64910329
H     0.63352301  -1.66309448  -0.16035428
6
# step=   876 energy=-149.92639883
O    -4.50629882   0.64146263  -0.73028717
H    -5.00359242   0.50786160   0.14772526
H    -4.36890893   1.61484066  -0.58957557
O     0.85446707  -1.26563356   0.73646236
H     1.85750842  -1.05577340   0.67211239
H     0.62784144  -1.66837190  -0.17027374
6
# step=   877 energy=-149.92592559
O    -4.50828100   0.64307207  -0.72999902
H    -4.99772446   0.49646510   0.13738878
H    -4.36690146   1.60851440  -0.59571566
O     0.85594855  -1.26626781   0.73625853
H     1.86096599  -1.05015701   0.69400377
H     0.62451965  -1.67186851  -0.17703768
6
# step=   878 energy=-149.92581412
O    -4.51037969   0.64467753  -0.72949811
H    -4.99092804   0.48388687   0.12484104
H    -4.36396628   1.60343249  -0.60306125
O     0.85757244  -1.26692644   0.73590873
H     1.85909829  -1.04640766   0.71424853
H     0.62425239  -1.67310715  -0.17980687
6
# step=   879 energy=-149.92604975
O    -4.51254053   0.64621795  -0.72891282
H    -4.98401676   0.47025973   0.11167244
H    -4.36016200   1.60044029  -0.61115017
O     0.85928678  -1.26761759   0.73542386
H     1.85229001  -1.04460198   0.73238246
H     0.62748912  -1.67188178  -0.17828997
6
# step=   880 energy=-149.92645037
O    -4.51469907   0.64765515  -0.72838328
H    -4.97788290   0.45569902   0.09965717
H    -4.35562142   1.60003112  -0.61951167
O     0.86101793  -1.26834264   0.73484352
H     1.84151989  -1.04464317   0.74804450
H     0.63442324  -1.66826511  -0.17276253
6
# step=   881 energy=-149.92674644
O    -4.51679041   0.64897815  -0.72804192
H    -4.97333420   0.44033806   0.09045874
H    -4.35056585   1.60224425  -0.62768558
O     0.86267438  -1.26909619   0.73423395
H     1.82830744  -1.04626346   0.76101607
H     0.64498963  -1.66260823  -0.16407030
6
# step=   882 energy=-149.92666887
O    -4.51876155   0.65019906  -0.72799146
H    -4.97090695   0.42439186   0.08528557
H    -4.34530064   1.60666876  -0.63523402
O     0.86415376  -1.26986580   0.73368487
H     1.81459454  -1.04904488   0.77125007
H     0.65887824  -1.65552586  -0.15360481
6
# step=   883 energy=-149.92607921
O    -4.52058241   0.65134200  -0.72828720
H    -4.97072048   0.40822869   0.08461293
H    -4.34018989   1.61255134  -0.64174821
O     0.86535393  -1.27063187   0.73330393
H     1.80253051  -1.05246812   0.77887785
H     0.67557609  -1.64785199  -0.14321893
6
# step=   884 energy=-149.92514385
O    -4.52225092   0.65243020  -0.72893104
H    -4.97243888   0.39240854   0.08809154
H    -4.33561667   1.61896508  -0.64685569
O     0.86618830  -1.27136848   0.73320622
H     1.79414832  -1.05599427   0.78418509
H     0.69444954  -1.64054478  -0.13503248
6
# step=   885 energy=-149.92438104
O    -4.52379015   0.65347681  -0.72987921
H    -4.97535898   0.37765787   0.09468148
H    -4.33194039   1.62498169  -0.65022970
O     0.86660289  -1.27204692   0.73349624
H     1.79097352  -1.05916804   0.78755658
H     0.71486261  -1.63452770  -0.13108940
6
# step=   886 energy=-149.92436991
O    -4.52523922   0.65448138  -0.73105892
H    -4.97857914   0.36478898   0.10293428
H    -4.32946240   1.62980467  -0.65159909
O     0.86659020  -1.27264226   0.73424282
H     1.79367605  -1.06171046   0.78940670
H     0.73629034  -1.63048704  -0.13289291
6
# step=   887 energy=-149.92526042
O    -4.52664194   0.65543067  -0.73238586
H    -4.98117823   0.35459430   0.11129823
H    -4.32840172   1.63285330  -0.65076046
O     0.86619567  -1.27314149   0.73545307
H     1.80189367  -1.06356358   0.79012575
H     0.75836716  -1.62868879  -0.14094746
6
# step=   888 energy=-149.92658219
O    -4.52803860   0.65630274  -0.73377922
H    -4.98236361   0.34772882   0.11837614
H    -4.32887589   1.63381336  -0.64759429
O     0.86551401  -1.27354969   0.73705861
H     1.81431316  -1.06487037   0.79006286
H     0.78086020  -1.62889861  -0.15452366
6
# step=   889 energy=-149.92760296
O    -4.52946193   0.65707255  -0.73517365
H    -4.98157071   0.34461151   0.12311124
H    -4.33089246   1.63265562  -0.64207234
O     0.86467498  -1.27389015   0.73892581
H     1.82900003  -1.06590078   0.78953688
H     0.80359482  -1.63046269  -0.17181889
6
# step=   890 energy=-149.92786740
O    -4.53093480   0.65771649  -0.73652644
H    -4.97851051   0.34537590   0.12488849
H    -4.33435491   1.62961751  -0.63425331
O     0.86382351  -1.27419802   0.74088440
H     1.84382352  -1.06695867   0.78885579
H     0.82636303  -1.63250826  -0.19042706
6
# step=   891 energy=-149.92742081
O    -4.53246866   0.65821617  -0.73782053
H    -4.97318194   0.34985674   0.12357555
H    -4.33907721   1.62515744  -0.62427541
O     0.86310086  -1.27451180   0.74275971
H     1.85681750  -1.06830583   0.78833103
H     0.84886692  -1.63415633  -0.20786671
6
# step=   892 energy=-149.92664483
O    -4.53406247   0.65856211  -0.73906536
H    -4.96586591   0.35759531   0.11953207
H    -4.34480307   1.61988856  -0.61235114
O     0.86262979  -1.27486658   0.74439730
H     1.86641595  -1.07011690   0.78828226
H     0.87071629  -1.63467338  -0.22198283
6
# step=   893 energy=-149.92595938
O    -4.53570232   0.65875755  -0.74029577
H    -4.95710462   0.36785992   0.11359307
H    -4.35122837   1.61449565  -0.59876598
O     0.86250474  -1.27529036   0.74567715
H     1.87157452  -1.07245994   0.78903584
H     0.89146023  -1.63354862  -0.23117359
6
# step=   894 energy=-149.92562607
O    -4.53736218   0.65882160  -0.74156782
H    -4.94765826   0.37968754   0.10700890
H    -4.35802534   1.60964177  -0.58388135
O     0.86278581  -1.27580261   0.74651948
H     1.87181897  -1.07529190   0.79092217
H     0.91062709  -1.63051926  -0.23448482
6
# step=   895 energy=-149.92570958
O    -4.53900704   0.65879006  -0.74294966
H    -4.93842299   0.39195930   0.10130662
H    -4.36486697   1.60587566  -0.56813860
O     0.86349515  -1.27641384   0.74688657
H     1.86725821  -1.07846031   0.79427357
H     0.92776251  -1.62557218  -0.23164088
6
# step=   896 energy=-149.92611423
O    -4.54059947   0.65871279  -0.74450601
H    -4.93029706   0.40351950   0.09804048
H    -4.37145103   1.60355450  -0.55205495
O     0.86461464  -1.27712551   0.74678369
H     1.85857739  -1.08170921   0.79942262
H     0.94246849  -1.61893922  -0.22305956
6
# step=   897 energy=-149.92659922
O    -4.54210938   0.65864709  -0.74627798
H    -4.92400737   0.41332729   0.09844651
H    -4.37752200   1.60279872  -0.53620385
O     0.86608597  -1.27792978   0.74625974
H     1.84699715  -1.08469249   0.80669934
H     0.95444721  -1.61108841  -0.20985886
6
# step=   898 energy=-149.92679911
O    -4.54352352   0.65864912  -0.74826385
H    -4.91994764   0.42059951   0.10309732
H    -4.38288678   1.60348948  -0.52117989
O     0.86781485  -1.27880936   0.74540639
H     1.83416805  -1.08700044   0.81642387
H     0.96354568  -1.60270257  -0.19383064
6
# step=   899 energy=-149.92639280
O    -4.54485076   0.65876638  -0.75040962
H    -4.91809639   0.42489380   0.11170362
H    -4.38742143   1.60530752  -0.50755583
O     0.86968174  -1.27973784   0.74435270
H     1.82196991  -1.08820579   0.82888790
H     0.96979268  -1.59463018  -0.17733353
6
# step=   900 energy=-149.92542648
O    -4.54612041   0.65903378  -0.75261475
H    -4.91805150   0.42610723   0.12316113
H    -4.39106811   1.60780058  -0.49584120
O     0.87156021  -1.28068155   0.74325224
H     1.81220790  -1.08793184   0.84431608
H     0.97341538  -1.58778967  -0.16304464
6
# step=   901 energy=-149.92446946
O    -4.54737507   0.65947298  -0.75475065
H    -4.91915853   0.42440685   0.13581467
H    -4.39382410   1.61046301  -0.48645031
O     0.87334087  -1.28160397   0.74226030
H     1.80624846  -1.08593493   0.86280253
H     0.97482181  -1.58301710  -0.15352999
6
# step=   902 energy=-149.92426998
O    -4.54866111   0.66009347  -0.75668333
H    -4.92066946   0.42013349   0.14780726
H    -4.39572551   1.61281227  -0.47968528
O     0.87495409  -1.28247258   0.74150368
H     1.80470266  -1.08218060   0.88422501
H     0.97454501  -1.58087734  -0.15068115
6
# step=   903 energy=-149.92510821
O    -4.55001954   0.66089301  -0.75829201
H    -4.92187615   0.41372017   0.15738587
H    -4.39683020   1.61445299  -0.47572883
O     0.87638202  -1.28326593   0.74105246
H     1.80727886  -1.07688719   0.90815333
H     0.97316825  -1.58149725  -0.15518627
6
# step=   904 energy=-149.92650904
O    -4.55148028   0.66185774  -0.75948413
H    -4.92220205   0.40563402   0.16313330
H    -4.39720645   1.61513013  -0.47462925
O     0.87765634  -1.28397857   0.74090568
H     1.81287032  -1.07051081   0.93382106
H     0.97126171  -1.58449801  -0.16627849
6
# step=   905 energy=-149.92764548
O    -4.55306103   0.66296381  -0.76020703
H    -4.92125682   0.39632275   0.16412604
H    -4.39692537   1.61476532  -0.47628758
O     0.87884337  -1.28462121   0.74099999
H     1.81986009  -1.06366232   0.96021647
H     0.96934514  -1.58908532  -0.18195103
6
# step=   906 energy=-149.92797669
O    -4.55476763   0.66418016  -0.76045242
H    -4.91885828   0.38616940   0.16000423
H    -4.39605387   1.61346530  -0.48046514
O     0.88002190  -1.28521524   0.74123696
H     1.82650726  -1.05699614   0.98622746
H     0.96787700  -1.59425519  -0.19952781
6
# step=   907 energy=-149.92751518
O    -4.55659433   0.66547178  -0.76025609
H    -4.91503423   0.37545989   0.15098461
H    -4.39465078   1.61150269  -0.48680333
O     0.88126324  -1.28578547   0.74151286
H     1.83126540  -1.05111501   1.01077689
H     0.96725751  -1.59900657  -0.21627510
6
# step=   908 energy=-149.92664988
O    -4.55852406   0.66680387  -0.75969527
H    -4.91001391   0.36435830   0.13784523
H    -4.39276790   1.60927286  -0.49484870
O     0.88261856  -1.28635463   0.74173966
H     1.83297761  -1.04650722   1.03292587
H     0.96783275  -1.60248972  -0.22984136
6
# step=   909 energy=-149.92583161
O    -4.56052905   0.66814676  -0.75888390
H    -4.90420841   0.35289006   0.12188091
H    -4.39045567   1.60723072  -0.50408131
O     0.88411294  -1.28694080   0.74185504
H     1.83096502  -1.04351388   1.05194020
H     0.96989724  -1.60408023  -0.23848667
6
# step=   910 energy=-149.92537391
O    -4.56257222   0.66948044  -0.75796464
H    -4.89817159   0.34094324   0.10480657
H    -4.38777254   1.60581497  -0.51394378
O     0.88574332  -1.28755656   0.74182498
H     1.82505107  -1.04231601   1.06732782
H     0.97369599  -1.60340212  -0.24116461
6
# step=   911 energy=-149.92540543
O    -4.56461041   0.67079677  -0.75709542
H    -4.89252884   0.32830598   0.08857468
H    -4.38479603   1.60537151  -0.52386784
O     0.88747799  -1.28820900   0.74164312
H     1.81555827  -1.04293008   1.07886210
H     0.97942593  -1.60032965  -0.23754080
6
# step=   912 energy=-149.92586994
O    -4.56660035   0.67209772  -0.75642956
H    -4.88786572   0.31475550   0.07508359
H    -4.38163161   1.60609144  -0.53329819
O     0.88925714  -1.28889971   0.74132998
H     1.80329180  -1.04520636   1.08660335
H     0.98723730  -1.59498682  -0.22800426
6
# step=   913 energy=-149.92649462
O    -4.56850722   0.67338889  -0.75609138
H    -4.88459054   0.30019426   0.06580909
H    -4.37841517   1.60797846  -0.54171487
O     0.89099534  -1.28962462   0.74093261
H     1.78949735  -1.04883338   1.09091632
H     0.99723888  -1.58774573  -0.21367886
6
# step=   914 energy=-149.92680929
O    -4.57031298   0.67467047  -0.75615482
H    -4.88281700   0.28479273   0.06147693
H    -4.37530703   1.61085429  -0.54865324
O     0.89258711  -1.29037388   0.74052382
H     1.77576679  -1.05335874   1.09246331
H     1.00951156  -1.57921166  -0.19639970
6
# step=   915 energy=-149.92639413
O    -4.57202035   0.67593002  -0.75663411
H    -4.88232330   0.26907050   0.06192338
H    -4.37247941   1.61439640  -0.55371887
O     0.89391693  -1.29113212   0.74019861
H     1.76386927  -1.05823547   1.09214920
H     1.02412862  -1.57017581  -0.17859424
6
# step=   916 energy=-149.92530630
O    -4.57365055   0.67714123  -0.75749038
H    -4.88260995   0.25386394   0.06620768
H    -4.37010159   1.61819231  -0.55659783
O     0.89487449  -1.29188004   0.74006369
H     1.75549881  -1.06289786   1.09100553
H     1.04117014  -1.56151554  -0.16299692
6
# step=   917 energy=-149.92424980
O    -4.57523645   0.67826913  -0.75864979
H    -4.88302613   0.24019013   0.07290733
H    -4.36832617   1.62179423  -0.55706307
O     0.89537535  -1.29259841   0.74021738
H     1.75196298  -1.06685856   1.09002310
H     1.06070732  -1.55403521  -0.15215746
6
# step=   918 energy=-149.92411055
O    -4.57681378   0.67927774  -0.76002395
H    -4.88290784   0.22907433   0.08045370
H    -4.36727957   1.62476340  -0.55497783
O     0.89538365  -1.29327360   0.74072159
H     1.75388658  -1.06980094   1.08997543
H     1.08272347  -1.54828098  -0.14782215
6
# step=   919 energy=-149.92517029
O    -4.57841248   0.68013663  -0.76152466
H    -4.88168684   0.22140147   0.08739558
H    -4.36705491   1.62670338  -0.55030380
O     0.89493085  -1.29390194   0.74157584
H     1.76102343  -1.07163375   1.09129305
H     1.10696483  -1.54440416  -0.15041246
6
# step=   920 energy=-149.92682269
O    -4.58005209   0.68082647  -0.76307413
H    -4.87896260   0.21778811   0.09258068
H    -4.36770282   1.62729463  -0.54311416
O     0.89412216  -1.29449090   0.74270899
H     1.77225824  -1.07249196   1.09403339
H     1.13282662  -1.54213795  -0.15886633
6
# step=   921 energy=-149.92810314
O    -4.58174244   0.68134348  -0.76461393
H    -4.87453635   0.21849115   0.09527473
H    -4.36922476   1.62632744  -0.53358898
O     0.89312179  -1.29505636   0.74399734
H     1.78584495  -1.07267978   1.09795851
H     1.15938720  -1.54091064  -0.17098744
6
# step=   922 energy=-149.92841288
O    -4.58348473   0.68170039  -0.76610987
H    -4.86841454   0.22338034   0.09521271
H    -4.37157270   1.62372098  -0.52199854
O     0.89212310  -1.29561696   0.74529724
H     1.79977285  -1.07257846   1.10267541
H     1.18554092  -1.54003562  -0.18409618
6
# step=   923 energy=-149.92777968
O    -4.58527218   0.68192530  -0.76755346
H    -4.86079639   0.23194826   0.09260609
H    -4.37465151   1.61953149  -0.50868754
O     0.89131732  -1.29618911   0.74647421
H     1.81210817  -1.07255962   1.10777247
H     1.21015799  -1.53887709  -0.19563167
6
# step=   924 energy=-149.92665055
O    -4.58709100   0.68205967  -0.76896141
H    -4.85205100   0.24334147   0.08812160
H    -4.37832301   1.61395265  -0.49406092
O     0.89086950  -1.29678473   0.74742040
H     1.82123688  -1.07292542   1.11291744
H     1.23222163  -1.53694564  -0.20353058
6
# step=   925 energy=-149.92556714
O    -4.58892209   0.68215515  -0.77037259
H    -4.84268111   0.25641733   0.08282115
H    -4.38241188   1.60730770  -0.47856968
O     0.89090424  -1.29741104   0.74806117
H     1.82600134  -1.07387653   1.11791422
H     1.25091778  -1.53393224  -0.20639171
6
# step=   926 energy=-149.92495812
O    -4.59074347   0.68226871  -0.77184084
H    -4.83326868   0.26983726   0.07803674
H    -4.38671377   1.60003260  -0.46269781
O     0.89149864  -1.29807121   0.74835548
H     1.82575886  -1.07549899   1.12273055
H     1.26568135  -1.52970879  -0.20351245
6
# step=   927 energy=-149.92504636
O    -4.59253356   0.68245545  -0.77342184
H    -4.82439970   0.28220399   0.07515620
H    -4.39100563   1.59264864  -0.44695134
O     0.89267886  -1.29876486   0.74829443
H     1.82040027  -1.07776028   1.12750968
H     1.27622078  -1.52431971  -0.19488456
6
# step=   928 energy=-149.92576850
O    -4.59427520   0.68275988  -0.77515478
H    -4.81657211   0.29224105   0.07532165
H    -4.39506060   1.58571890  -0.43184400
O     0.89441720  -1.29948815   0.74790100
H     1.81035412  -1.08050969   1.13257412
H     1.28254700  -1.51797593  -0.18119999
6
# step=   929 energy=-149.92670358
O    -4.59596024   0.68320804  -0.77704400
H    -4.81010426   0.29898542   0.07910786
H    -4.39866984   1.57978294  -0.41787008
O     0.89663116  -1.30023390   0.74723089
H     1.79656552  -1.08348597   1.13842121
H     1.28501424  -1.51104654  -0.16385778
6
# step=   930 energy=-149.92717688
O    -4.59759239   0.68380401  -0.77904853
H    -4.80508143   0.30192515   0.08631295
H    -4.40166703   1.57528019  -0.40547252
O     0.89918784  -1.30099194   0.74637196
H     1.78041577  -1.08633909   1.14569908
H     1.28434601  -1.50403725  -0.14492302
6
# step=   931 energy=-149.92667127
O    -4.59918621   0.68453266  -0.78108434
H    -4.80136719   0.30102456   0.09596807
H    -4.40394692   1.57248525  -0.39502262
O     0.90191629  -1.30174960   0.74543954
H     1.76356294  -1.08867049   1.15514525
H     1.28161029  -1.49754627  -0.12698268
6
# step=   932 energy=-149.92533732
O    -4.60076294   0.68536712  -0.78303880
H    -4.79866831   0.29664239   0.10655878
H    -4.40547334   1.57147306  -0.38681318
O     0.90462984  -1.30249298   0.74456406
H     1.74769965  -1.09009468   1.16747416
H     1.27811212  -1.49218490  -0.11283258
6
# step=   933 energy=-149.92408040
O    -4.60234563   0.68627731  -0.78479114
H    -4.79661915   0.28939275   0.11635070
H    -4.40627576   1.57212116  -0.38105955
O     0.90715780  -1.30320958   0.74386892
H     1.73425485  -1.09031722   1.18321642
H     1.27518574  -1.48845831  -0.10496075
6
# step=   934 energy=-149.92392721
O    -4.60395443   0.68723619  -0.78623044
H    -4.79485597   0.28000718   0.12369090
H    -4.40643674   1.57414459  -0.37790469
O     0.90937884  -1.30389164   0.74344222
H     1.72412008  -1.08921107   1.20253364
H     1.27392252  -1.48663142  -0.10491698
6
# step=   935 energy=-149.92513938
O    -4.60560154   0.68822147  -0.78726761
H    -4.79306853   0.26924128   0.12722090
H    -4.40607567   1.57714564  -0.37741819
O     0.91124219  -1.30453803   0.74331363
H     1.71749742  -1.08686790   1.22504838
H     1.27493689  -1.48663209  -0.11279606
6
# step=   936 energy=-149.92697719
O    -4.60728978   0.68921633  -0.78784614
H    -4.79102760   0.25780331   0.12603286
H    -4.40533358   1.58067116  -0.37957340
O     0.91277211  -1.30515442   0.74344844
H     1.71390359  -1.08360014   1.24980400
H     1.27828078  -1.48804285  -0.12710882
6
# step=   937 energy=-149.92835542
O    -4.60901598   0.69021121  -0.78795075
H    -4.78859438   0.24627293   0.11976335
H    -4.40435579   1.58427962  -0.38422878
O     0.91405251  -1.30575154   0.74376514
H     1.71234713  -1.07987746   1.27542920
H     1.28355908  -1.49020776  -0.14520269
6
# step=   938 energy=-149.92863642
O    -4.61077338   0.69120442  -0.78760908
H    -4.78572071   0.23504373   0.10861037
H    -4.40327548   1.58759712  -0.39112756
O     0.91519602  -1.30634137   0.74416551
H     1.71161568  -1.07623041   1.30038338
H     1.29015878  -1.49239723  -0.16397761
6
# step=   939 energy=-149.92787503
O    -4.61255259   0.69220183  -0.78688982
H    -4.78244386   0.22429084   0.09330906
H    -4.40220188   1.59035327  -0.39990421
O     0.91631430  -1.30693392   0.74455987
H     1.71054298  -1.07316176   1.32318464
H     1.29745584  -1.49394693  -0.18051898
6
# step=   940 energy=-149.92657485
O    -4.61434254   0.69321665  -0.78589827
H    -4.77887529   0.21395586   0.07507537
H    -4.40121268   1.59239945  -0.41009586
O     0.91749863  -1.30753615   0.74488038
H     1.70818942  -1.07108455   1.34258045
H     1.30494150  -1.49433672  -0.19248233
6
# step=   941 energy=-149.92534417
O    -4.61613176   0.69426837  -0.78476878
H    -4.77518106   0.20375770   0.05550257
H    -4.40035006   1.59371291  -0.42115900
O     0.91881040  -1.30815226   0.74508429
H     1.70393577  -1.07028824   1.35765127
H     1.31227758  -1.49321802  -0.19825156
6
# step=   942 energy=-149.92467271
O    -4.61790997   0.69537961  -0.78365277
H    -4.77155066   0.19324942   0.03639256
H    -4.39961975   1.59438880  -0.43248898
O     0.92027749  -1.30878451   0.74515236
H     1.69751823  -1.07092483   1.36786053
H     1.31931234  -1.49041296  -0.19696625
6
# step=   943 energy=-149.92480892
O    -4.61966960   0.69656930  -0.78270202
H    -4.76815420   0.18194050   0.01951637
H    -4.39899333   1.59462184  -0.44343897
O     0.92189259  -1.30943363   0.74508635
H     1.68903713  -1.07300382   1.37307764
H     1.32608311  -1.48590722  -0.18851290
6
# step=   944 energy=-149.92565032
O    -4.62140760   0.69784282  -0.78204822
H    -4.76509223   0.16947816   0.00631920
H    -4.39841371   1.59467696  -0.45334446
O     0.92361183  -1.31009892   0.74490771
H     1.67895557  -1.07638836   1.37360074
H     1.33282322  -1.47984716  -0.17353597
6
# step=   945 energy=-149.92668525
O    -4.62312794   0.69918329  -0.78178263
H    -4.76235173   0.15583308  -0.00236587
H    -4.39780490   1.59484519  -0.46156514
O     0.92535554  -1.31077860   0.74465733
H     1.66807647  -1.08079697   1.37017596
H     1.33997905  -1.47253425  -0.15344874
6
# step=   946 energy=-149.92716758
O    -4.62484301   0.70054891  -0.78194420
H    -4.75979077   0.14140839  -0.00646852
H    -4.39708666   1.59538428  -0.46753560
O     0.92701283  -1.31147058   0.74439403
H     1.65748053  -1.08582102   1.36397566
H     1.34822038  -1.46440288  -0.13037750
6
# step=   947 energy=-149.92660174
O    -4.62657171   0.70187879  -0.78252125
H    -4.75716409   0.12701710  -0.00661845
H    -4.39619292   1.59645248  -0.47080835
O     0.92845113  -1.31217318   0.74418943
H     1.64841657  -1.09096274   1.35650787
H     1.35841019  -1.45597449  -0.10698054
6
# step=   948 energy=-149.92524747
O    -4.62833526   0.70310599  -0.78346407
H    -4.75417742   0.11373353  -0.00391558
H    -4.39509007   1.59805067  -0.47108493
O     0.92953422  -1.31288619   0.74411609
H     1.64213152  -1.09569774   1.34944245
H     1.37149307  -1.44778111  -0.08608295
6
# step=   949 energy=-149.92410412
O    -4.63015274   0.70417253  -0.78470167
H    -4.75054670   0.10268517   0.00035471
H    -4.39379007   1.59998973  -0.46823329
O     0.93015045  -1.31361184   0.74422886
H     1.63964056  -1.09956008   1.34435746
H     1.38827343  -1.44026387  -0.07012251
6
# step=   950 energy=-149.92417136
O    -4.63203671   0.70504052  -0.78615583
H    -4.74604593   0.09486668   0.00496139
H    -4.39235569   1.60189375  -0.46229367
O     0.93024676  -1.31435454   0.74454480
H     1.64147639  -1.10223204   1.34245471
H     1.40910480  -1.43368202  -0.06055452
6
# step=   951 energy=-149.92557943
O    -4.63398829   0.70569688  -0.78774873
H    -4.74054236   0.09100787   0.00888216
H    -4.39089718   1.60324087  -0.45348656
O     0.92985700  -1.31511793   0.74503268
H     1.64748532  -1.10361128   1.34432498
H     1.43359526  -1.42807858  -0.05747243
6
# step=   952 energy=-149.92747440
O    -4.63599738   0.70615496  -0.78940944
H    -4.73401023   0.09146695   0.01140153
H    -4.38955667   1.60344428  -0.44220738
O     0.92910935  -1.31590162   0.74562109
H     1.65676693  -1.10383447   1.34984652
H     1.46054895  -1.42330805  -0.05963575
6
# step=   953 energy=-149.92874683
O    -4.63804784   0.70645252  -0.79108181
H    -4.72651865   0.09617560   0.01216790
H    -4.38848280   1.60195472  -0.42898147
O     0.92820272  -1.31669998   0.74622233
H     1.66783767  -1.10323465   1.35829003
H     1.48822629  -1.41911433  -0.06493354
6
# step=   954 energy=-149.92880092
O    -4.64012123   0.70664569  -0.79272906
H    -4.71821287   0.10464713   0.01120429
H    -4.38780606   1.59835461  -0.41441014
O     0.92736513  -1.31750230   0.74675644
H     1.67893478  -1.10225001   1.36856985
H     1.51472229  -1.41522393  -0.07101073
6
# step=   955 energy=-149.92776582
O    -4.64219921   0.70680161  -0.79433529
H    -4.70929416   0.11601846   0.00888549
H    -4.38761835   1.59243239  -0.39912226
O     0.92681415  -1.31829470   0.74716474
H     1.68832458  -1.10132951   1.37951336
H     1.53828951  -1.41140992  -0.07575646
6
# step=   956 energy=-149.92624384
O    -4.64426576   0.70699094  -0.79590467
H    -4.69999685   0.12912098   0.00588168
H    -4.38795786   1.58423175  -0.38372965
O     0.92672964  -1.31906282   0.74741310
H     1.69453314  -1.10086279   1.39006993
H     1.55754003  -1.40751782  -0.07756553
6
# step=   957 energy=-149.92494692
O    -4.64630913   0.70727976  -0.79745750
H    -4.69056348   0.14258680   0.00305637
H    -4.38880033   1.57407316  -0.36878732
O     0.92723977  -1.31979418   0.74748934
H     1.69647785  -1.10114002   1.39943885
H     1.57153619  -1.40346709  -0.07542613
6
# step=   958 energy=-149.92441726
O    -4.64832269   0.70772086  -0.79902184
H    -4.68122364   0.15499063   0.00130966
H    -4.39005729   1.56254849  -0.35476458
O     0.92841554  -1.32047955   0.74739918
H     1.69352162  -1.10233444   1.40713128
H     1.57981414  -1.39924356  -0.06892250
6
# step=   959 energy=-149.92484274
O    -4.65030386   0.70834483  -0.80062095
H    -4.67218291   0.16501690   0.00137482
H    -4.39158158   1.55048979  -0.34203202
O     0.93026764  -1.32111335   0.74716351
H     1.68549208  -1.10449545   1.41299464
H     1.58239244  -1.39489285  -0.05822708
6
# step=   960 energy=-149.92595000
O    -4.65225257   0.70915298  -0.80225984
H    -4.66361746   0.17164008   0.00360454
H    -4.39318292   1.53889603  -0.33085391
O     0.93274271  -1.32169393   0.74681755
H     1.67269473  -1.10754502   1.41722828
H     1.57980377  -1.39051400  -0.04411092
6
# step=   961 energy=-149.92705413
O    -4.65417088   0.71011648  -0.80391704
H    -4.65566674   0.17427751   0.00782317
H    -4.39465681   1.52880115  -0.32138189
O     0.93572325  -1.32222451   0.74641038
H     1.65589890  -1.11128153   1.42039273
H     1.57312726  -1.38624655  -0.02793616
6
# step=   962 energy=-149.92737250
O    -4.65606227   0.71118318  -0.80554374
H    -4.64843279   0.17284493   0.01331955
H    -4.39582189   1.52111550  -0.31367294
O     0.93903468  -1.32271378   0.74600291
H     1.63627239  -1.11539662   1.42338582
H     1.56396426  -1.38225218  -0.01158769
6
# step=   963 energy=-149.92654617
O    -4.65792961   0.71229018  -0.80707001
H    -4.64198664   0.16770021   0.01898460
H    -4.39655581   1.51648581  -0.30773444
O     0.94246112  -1.32317554   0.74566256
H     1.61526317  -1.11950705   1.42736192
H     1.55431569  -1.37869109   0.00269843
6
# step=   964 energy=-149.92503739
O    -4.65977349   0.71337766  -0.80841548
H    -4.63637331   0.15951485   0.02353251
H    -4.39682056   1.51520317  -0.30357524
O     0.94577312  -1.32362767   0.74545248
H     1.59442045  -1.12320608   1.43357491
H     1.54631995  -1.37568976   0.01266722
6
# step=   965 energy=-149.92395543
O    -4.66159163   0.71439990  -0.80950118
H    -4.63161291   0.14912377   0.02572580
H    -4.39667097   1.51717664  -0.30124191
O     0.94876706  -1.32409001   0.74541540
H     1.57516467  -1.12613355   1.44313912
H     1.54185286  -1.37330310   0.01654087
6
# step=   966 energy=-149.92424030
O    -4.66337788   0.71533046  -0.81025902
H    -4.62770257   0.13740008   0.02454945
H    -4.39624508   1.52196830  -0.30082858
O     0.95130443  -1.32458114   0.74555809
H     1.55856565  -1.12805027   1.45673489
H     1.54209756  -1.37148522   0.01355047
6
# step=   967 energy=-149.92585814
O    -4.66512059   0.71616193  -0.81063967
H    -4.62461795   0.12517484   0.01933605
H    -4.39574081   1.52886145  -0.30245042
O     0.95333589  -1.32511398   0.74584568
H     1.54519262  -1.12889644   1.47432912
H     1.54726183  -1.37008503   0.00428038
6
# step=   968 energy=-149.92782573
O    -4.66680623   0.71690505  -0.81062178
H    -4.62230225   0.11315168   0.00985142
H    -4.39538174   1.53696453  -0.30618810
O     0.95490498  -1.32569311   0.74621294
H     1.53504538  -1.12881414   1.49507308
H     1.55659897  -1.36887103  -0.00940368
6
# step=   969 energy=-149.92901594
O    -4.66842539   0.71758662  -0.81021780
H    -4.62065627   0.10182040  -0.00368806
H    -4.39537828   1.54534595  -0.31203790
O     0.95612503  -1.32631493   0.74658785
H     1.52763547  -1.12811049   1.51746371
H     1.56874537  -1.36758089  -0.02486732
6
# step=   970 energy=-149.92889660
O    -4.66997564   0.71824521  -0.80947457
H    -4.61953812   0.09141217  -0.02064701
H    -4.39589446   1.55315212  -0.31987649
O     0.95713988  -1.32696961   0.74691226
H     1.52219452  -1.12717908   1.53965514
H     1.58215078  -1.36597276  -0.03934332
6
# step=   971 energy=-149.92767962
O    -4.67146259   0.71892620  -0.80847065
H    -4.61876678   0.08188987  -0.04003381
H    -4.39702367   1.55969488  -0.32943978
O     0.95808985  -1.32764410   0.74715108
H     1.51789077  -1.12641835   1.55979040
H     1.59540402  -1.36385784  -0.05041224
6
# step=   972 energy=-149.92603306
O    -4.67290034   0.71967644  -0.80731034
H    -4.61812809   0.07297228  -0.06059969
H    -4.39877330   1.56451204  -0.34031768
O     0.95909085  -1.32832520   0.74729153
H     1.51398558  -1.12617068   1.57626409
H     1.60740812  -1.36111140  -0.05625444
6
# step=   973 energy=-149.92470359
O    -4.67431121   0.72053772  -0.80611440
H    -4.61738458   0.06420258  -0.08097770
H    -4.40105763   1.56740325  -0.35196282
O     0.96022480  -1.32900188   0.74733789
H     1.50992065  -1.12668749   1.58788367
H     1.61744462  -1.35766968  -0.05572760
6
# step=   974 energy=-149.92422653
O    -4.67572419   0.72153820  -0.80500826
H    -4.61629008   0.05506985  -0.09984960
H    -4.40369741   1.56844125  -0.36370696
O     0.96153606  -1.32966652   0.74730587
H     1.50535531  -1.12811401   1.59394559
H     1.62518263  -1.35352194  -0.04835950
6
# step=   975 energy=-149.92473875
O    -4.67717163   0.72268239  -0.80410919
H    -4.61460981   0.04517576  -0.11611587
H    -4.40642599   1.56795775  -0.37478208
O     0.96302907  -1.33031516   0.74721880
H     1.50018012  -1.13048213   1.59427247
H     1.63067709  -1.34870504  -0.03433691
6
# step=   976 energy=-149.92589924
O    -4.67868572   0.72394329  -0.80351309
H    -4.61214417   0.03440158  -0.12905455
H    -4.40890856   1.56649722  -0.38436550
O     0.96466635  -1.33094787   0.74710525
H     1.49451884  -1.13370521   1.58925419
H     1.63438431  -1.34329821  -0.01451730
6
# step=   977 energy=-149.92699575
O    -4.68029610   0.72526278  -0.80328344
H    -4.60874878   0.02300489  -0.13842654
H    -4.41078183   1.56472072  -0.39166253
O     0.96636964  -1.33156994   0.74699668
H     1.48871503  -1.13758004   1.57987327
H     1.63717944  -1.33740906   0.00959523
6
# step=   978 energy=-149.92729786
O    -4.68202735   0.72656195  -0.80344725
H    -4.60434431   0.01160705  -0.14446047
H    -4.41170743   1.56326188  -0.39599940
O     0.96802508  -1.33219275   0.74692354
H     1.48330169  -1.14180003   1.56767293
H     1.64032688  -1.33115414   0.03595760
6
# step=   979 energy=-149.92654421
O    -4.68389621   0.72775835  -0.80399808
H    -4.59891544   0.00107899  -0.14772815
H    -4.41142798   1.56256726  -0.39690465
O     0.96949504  -1.33283350   0.74690877
H     1.47894653  -1.14598176   1.55464815
H     1.64535607  -1.32463998   0.06220493
6
# step=   980 energy=-149.92523887
O    -4.68590926   0.72878487  -0.80490287
H    -4.59250119  -0.00763089  -0.14897612
H    -4.40981391   1.56276690  -0.39416894
O     0.97064058  -1.33351318   0.74695916
H     1.47635343  -1.14971211   1.54302957
H     1.65380107  -1.31794884   0.08600609
6
# step=   981 energy=-149.92440366
O    -4.68806204   0.72960388  -0.80610980
H    -4.58518115  -0.01366726  -0.14897118
H    -4.40688921   1.56361816  -0.38787157
O     0.97135526  -1.33425219   0.74705815
H     1.47610872  -1.15261867   1.53494568
H     1.66681067  -1.31113721   0.10551490
6
# step=   982 energy=-149.92481774
O    -4.69033805   0.73021244  -0.80755481
H    -4.57706695  -0.01639563  -0.14839005
H    -4.40283193   1.56454201  -0.37837480
O     0.97160171  -1.33506340   0.74716636
H     1.47848852  -1.15445227   1.53201248
H     1.68473236  -1.30425662   0.11975895
6
# step=   983 energy=-149.92635664
O    -4.69270798   0.73063973  -0.80916602
H    -4.56830088  -0.01548974  -0.14775655
H    -4.39795362   1.56474029  -0.36629678
O     0.97143633  -1.33594486   0.74723403
H     1.48328310  -1.15515840   1.53495910
H     1.70685834  -1.29738796   0.12879746
6
# step=   984 energy=-149.92808166
O    -4.69513460   0.73094026  -0.81087060
H    -4.55903969  -0.01098701  -0.14741024
H    -4.39265222   1.56336491  -0.35244088
O     0.97100721  -1.33687743   0.74722086
H     1.48973922  -1.15490603   1.54345016
H     1.73153144  -1.29065495   0.13358819
6
# step=   985 energy=-149.92897754
O    -4.69758049   0.73118390  -0.81260317
H    -4.54942929  -0.00328880  -0.14749877
H    -4.38734896   1.55968872  -0.33768874
O     0.97052234  -1.33782879   0.74711158
H     1.49668162  -1.15404753   1.55623241
H     1.75656749  -1.28421208   0.13561186
6
# step=   986 energy=-149.92861642
O    -4.70001303   0.73144506  -0.81431117
H    -4.53958981   0.00688478  -0.14799391
H    -4.38243293   1.55323733  -0.32290241
O     0.97020553  -1.33876042   0.74691892
H     1.50274938  -1.15303082   1.57151060
H     1.77973385  -1.27822355   0.13645300
6
# step=   987 energy=-149.92728906
O    -4.70240732   0.73179296  -0.81595734
H    -4.52961031   0.01856825  -0.14872989
H    -4.37821945   1.54387052  -0.30884698
O     0.97025882  -1.33963477   0.74667653
H     1.50663910  -1.15230741   1.58735934
H     1.79910724  -1.27284040   0.13750174
6
# step=   988 energy=-149.92570863
O    -4.70474762   0.73228335  -0.81751953
H    -4.51955169   0.03064831  -0.14946384
H    -4.37492135   1.53181673  -0.29613140
O     0.97083898  -1.34042061   0.74642837
H     1.50728137  -1.15226486   1.60204178
H     1.81327040  -1.26818194   0.13980330
6
# step=   989 energy=-149.92460338
O    -4.70702734   0.73295148  -0.81898812
H    -4.50946010   0.04197942  -0.14995598
H    -4.37263269   1.51766872  -0.28516828
O     0.97204705  -1.34109601   0.74621990
H     1.50393251  -1.15318983   1.61419814
H     1.82138542  -1.26432391   0.14400907
6
# step=   990 energy=-149.92440632
O    -4.70924670   0.73380642  -0.82036098
H    -4.49939380   0.05150281  -0.15005954
H    -4.37132507   1.50235117  -0.27615661
O     0.97392459  -1.34164931   0.74609259
H     1.49620658  -1.15525327   1.62292975
H     1.82320653  -1.26129228   0.15037205
6
# step=   991 energy=-149.92510242
O    -4.71140844   0.73482736  -0.82163723
H    -4.48945767   0.05835779  -0.14980234
H    -4.37085616   1.48705918  -0.26908627
O     0.97645054  -1.34207945   0.74608105
H     1.48408793  -1.15850387   1.62783385
H     1.81909271  -1.25905769   0.15874489
6
# step=   992 energy=-149.92624192
O    -4.71351492   0.73596505  -0.82281271
H    -4.47982229   0.06198185  -0.14943514
H    -4.37099325   1.47313582  -0.26375997
O     0.97953905  -1.34239663   0.74621093
H     1.46793453  -1.16286503   1.62903643
H     1.81003543  -1.25752526   0.16857843
6
# step=   993 energy=-149.92713360
O    -4.71556729   0.73715014  -0.82387786
H    -4.47071648   0.06216986  -0.14942438
H    -4.37145882   1.46188521  -0.25984792
O     0.98304339  -1.34262309   0.74649688
H     1.44845001  -1.16814041   1.62721248
H     1.79764816  -1.25652545   0.17894684
6
# step=   994 energy=-149.92719567
O    -4.71756404   0.73830676  -0.82481635
H    -4.46240394   0.05906492  -0.15038791
H    -4.37199463   1.45437248  -0.25698383
O     0.98676689  -1.34279241   0.74694003
H     1.42662508  -1.17402907   1.62356277
H     1.78406841  -1.25581574   0.18862140
6
# step=   995 energy=-149.92634231
O    -4.71949929   0.73936701  -0.82560449
H    -4.45515065   0.05309368  -0.15299523
H    -4.37242806   1.45125651  -0.25487686
O     0.99048277  -1.34294688   0.74752420
H     1.40365005  -1.18015176   1.61972297
H     1.77173348  -1.25509859   0.19622510
6
# step=   996 energy=-149.92515246
O    -4.72136208   0.74028323  -0.82621231
H    -4.44918872   0.04487189  -0.15786136
H    -4.37271993   1.45269017  -0.25340136
O     0.99396569  -1.34313237   0.74821151
H     1.38078912  -1.18609378   1.61756977
H     1.76300214  -1.25406005   0.20049697
6
# step=   997 energy=-149.92456493
O    -4.72313715   0.74103470  -0.82660669
H    -4.44468480   0.03510396  -0.16545659
H    -4.37297768   1.45831031  -0.25263318
O     0.99703137  -1.34339101   0.74894064
H     1.35922377  -1.19146499   1.61889970
H     1.75967161  -1.25242631   0.20063828
6
# step=   998 energy=-149.92518350
O    -4.72480635   0.74162808  -0.82675672
H    -4.44171877   0.02449896  -0.17603602
H    -4.37342940   1.46730693  -0.25282172
O     0.99957106  -1.34375276   0.74963243
H     1.33990430  -1.19596580   1.62500972
H     1.76254899  -1.25002320   0.19662789
6
# step=   999 energy=-149.92675409
O    -4.72635169   0.74209354  -0.82664112
H    -4.44026611   0.01370367  -0.18958774
H    -4.37436725   1.47854408  -0.25430796
O     1.00156847  -1.34422901   0.75020642
H     1.32343818  -1.19944380   1.63629136
H     1.77126715  -1.24681428   0.18935090
6
# step=  1000 energy=-149.92833887
O    -4.72776182   0.74247894  -0.82625598
H    -4.44018359   0.00323127  -0.20582702
H    -4.37607747   1.49073032  -0.25741822
O     1.00309335  -1.34481165   0.75060370
H     1.31003364  -1.20192156   1.65204289
H     1.78446341  -1.24289468   0.18043013
